 vasp.6.3.0 20Jan22 (build Jul 10 2024 08:55:24) complex

 executed on             LinuxIFC date 2024.11.04  21:07:27

 INCAR:
   SYSTEM = MoSe2
   PREC = Accurate
   ISPIN = 1
   ISTART = 0
   ICHARG = 1
   NPAR = 8
   ISMEAR = 0
   SIGMA = 0.1
   NELMIN = 4
   NELM = 200
   EDIFF = 1E-6
   MAGMOM = 0 0 1 6*0
   IBRION = -1
   LORBIT = 11
   LWAVE = .TRUE.
   LCHARG = .FALSE.
   LSORBIT = .TRUE.
   LHFCALC = .TRUE.
   HFSCREEN = 0.2
   AEXX = 0.25
   ALGO = D
   TIME = 0.4
   LDIAG = .TRUE.

 POTCAR:    PAW_PBE Mo 08Apr2002
 POTCAR:    PAW_PBE Se 06Sep2000
 POTCAR:    PAW_PBE Mo 08Apr2002
   VRHFIN =Mo: 4p5s4d

   TITEL  = PAW_PBE Mo 08Apr2002
   POMASS =   95.940; ZVAL   =    6.000    mass and valenz
   ENMAX  =  224.584; ENMIN  =  168.438 eV

 POTCAR:    PAW_PBE Se 06Sep2000
   VRHFIN =Se: s2p4

   TITEL  = PAW_PBE Se 06Sep2000
   POMASS =   78.960; ZVAL   =    6.000    mass and valenz
   ENMAX  =  211.555; ENMIN  =  158.666 eV

  PAW_PBE Mo 08Apr2002                  :
  PAW_PBE Se 06Sep2000                  :

 POSCAR: Mo  S
  positions in direct lattice
  velocities in cartesian coordinates
 exchange correlation table for  LEXCH =        8
   RHO(1)=    0.500       N(1)  =     2000
   RHO(2)=  100.500       N(2)  =     4000

 ion  position               nearest neighbor table
   1  0.656  0.328  0.500-   3 2.54   2 2.54   2 2.54   3 2.54   3 2.54   2 2.54
   2  0.990  0.995  0.389-   1 2.54   1 2.54   1 2.54
   3  0.990  0.995  0.612-   1 2.54   1 2.54   1 2.54

  LATTYP: Found a hexagonal cell.
 ALAT       =     3.3200000000
 C/A-ratio  =     4.5180722892

  Lattice vectors:

 A1 = (   3.3200000000,   0.0000000000,   0.0000000000)
 A2 = (  -1.6600000000,   2.8752043406,   0.0000000000)
 A3 = (   0.0000000000,   0.0000000000,  15.0000000000)

Analysis of symmetry for initial positions (statically):
 Subroutine PRICEL returns:
 Original cell was already a primitive cell.

 Routine SETGRP: Setting up the symmetry group for a
 hexagonal supercell.

 Subroutine GETGRP returns: Found  2 space group operations
 (whereof  2 operations were pure point group operations)
 out of a pool of 24 trial point group operations.

The static configuration has the point symmetry C_1h.

Analysis of symmetry for dynamics (positions and initial velocities):
 Subroutine PRICEL returns:
 Original cell was already a primitive cell.

[...]

The dynamic configuration has the point symmetry C_1h.

Analysis of structural, dynamic, and magnetic symmetry:
 Subroutine PRICEL returns:
 Original cell was already a primitive cell.

 Routine SETGRP: Setting up the symmetry group for a
 hexagonal supercell.

 Subroutine GETGRP returns: Found  1 space group operations
 (whereof  1 operations were pure point group operations)
 out of a pool of 24 trial point group operations.

The overall configuration has the point symmetry C_1 .

 Subroutine INISYM returns: Found  1 space group operations
 (whereof  1 operations are pure point group operations),
 and found     1 'primitive' translations

                                     Primitive cell

  volume of cell :     143.1852

  direct lattice vectors                    reciprocal lattice vectors
     3.320000000  0.000000000  0.000000000     0.301204819  0.173900683  0.000000000
    -1.660000000  2.875204341  0.000000000     0.000000000  0.347801367  0.000000000
     0.000000000  0.000000000 15.000000000     0.000000000  0.000000000  0.066666667

  length of vectors
     3.320000000  3.320000000 15.000000000     0.347801367  0.347801367  0.066666667

  position of ions in fractional coordinates (direct lattice)
     0.656360473  0.328183185  0.500455147
     0.989670353  0.994833693  0.389220100
     0.989712767  0.994854919  0.611690486

  ion indices of the primitive-cell ions
   primitive index   ion index
                 1           1
                 2           2
                 3           3

 KPOINTS: Automatically generated mesh

Read explicit list of k-points.

 Found    201 k-points:

 Following reciprocal coordinates:
            Coordinates               Weight
  0.000000  0.000000  0.000000      0.012346
  0.111111  0.000000  0.000000      0.012346
 -0.111111  0.000000  0.000000      0.012346
  0.000000  0.111111  0.000000      0.012346
  0.000000 -0.111111  0.000000      0.012346
 -0.111111  0.111111  0.000000      0.012346
  0.111111 -0.111111  0.000000      0.012346
  0.222222  0.000000  0.000000      0.012346
 -0.222222  0.000000  0.000000      0.012346
  0.000000  0.222222  0.000000      0.012346
  0.000000 -0.222222  0.000000      0.012346
 -0.222222  0.222222  0.000000      0.012346
  0.222222 -0.222222  0.000000      0.012346
  0.333333  0.000000  0.000000      0.012346
 -0.333333  0.000000  0.000000      0.012346
  0.000000  0.333333  0.000000      0.012346
  0.000000 -0.333333  0.000000      0.012346
 -0.333333  0.333333  0.000000      0.012346
  0.333333 -0.333333  0.000000      0.012346
  0.444444  0.000000  0.000000      0.012346
 -0.444444  0.000000  0.000000      0.012346
  0.000000  0.444444  0.000000      0.012346
  0.000000 -0.444444  0.000000      0.012346
 -0.444444  0.444444  0.000000      0.012346
  0.444444 -0.444444  0.000000      0.012346
  0.111111  0.111111  0.000000      0.012346
 -0.111111 -0.111111  0.000000      0.012346
 -0.111111  0.222222  0.000000      0.012346
  0.111111 -0.222222  0.000000      0.012346
 -0.222222  0.111111  0.000000      0.012346
  0.222222 -0.111111  0.000000      0.012346
  0.222222  0.111111  0.000000      0.012346
 -0.222222 -0.111111  0.000000      0.012346
 -0.111111  0.333333  0.000000      0.012346
  0.111111 -0.333333  0.000000      0.012346
 -0.333333  0.222222  0.000000      0.012346
  0.333333 -0.222222  0.000000      0.012346
 -0.222222  0.333333  0.000000      0.012346
  0.222222 -0.333333  0.000000      0.012346
  0.111111  0.222222  0.000000      0.012346
 -0.111111 -0.222222  0.000000      0.012346
  0.333333 -0.111111  0.000000      0.012346
 -0.333333  0.111111  0.000000      0.012346
  0.333333  0.111111  0.000000      0.012346
 -0.333333 -0.111111  0.000000      0.012346
 -0.111111  0.444444  0.000000      0.012346
  0.111111 -0.444444  0.000000      0.012346
 -0.444444  0.333333  0.000000      0.012346
  0.444444 -0.333333  0.000000      0.012346
 -0.333333  0.444444  0.000000      0.012346
  0.333333 -0.444444  0.000000      0.012346
  0.111111  0.333333  0.000000      0.012346
 -0.111111 -0.333333  0.000000      0.012346
  0.444444 -0.111111  0.000000      0.012346
 -0.444444  0.111111  0.000000      0.012346
  0.444444  0.111111  0.000000      0.012346
 -0.444444 -0.111111  0.000000      0.012346
 -0.111111 -0.444444  0.000000      0.012346
  0.111111  0.444444  0.000000      0.012346
  0.444444  0.444444  0.000000      0.012346
[...]
 -0.119658  0.239316  0.000000      0.000000
 -0.111111  0.222222  0.000000      0.000000
 -0.102564  0.205128  0.000000      0.000000
 -0.094017  0.188034  0.000000      0.000000
 -0.085470  0.170940  0.000000      0.000000
 -0.076923  0.153846  0.000000      0.000000
 -0.068376  0.136752  0.000000      0.000000
 -0.059829  0.119658  0.000000      0.000000
 -0.051282  0.102564  0.000000      0.000000
 -0.042735  0.085470  0.000000      0.000000
 -0.034188  0.068376  0.000000      0.000000
 -0.025641  0.051282  0.000000      0.000000
 -0.017094  0.034188  0.000000      0.000000
 -0.008547  0.017094  0.000000      0.000000
  0.000000  0.000000  0.000000      0.000000

 Following cartesian coordinates:
            Coordinates               Weight
  0.000000  0.000000  0.000000      0.012346
  0.033467  0.019322  0.000000      0.012346
 -0.033467 -0.019322  0.000000      0.012346
  0.000000  0.038645  0.000000      0.012346
  0.000000 -0.038645  0.000000      0.012346
 -0.033467  0.019322  0.000000      0.012346
  0.033467 -0.019322  0.000000      0.012346
  0.066934  0.038645  0.000000      0.012346
 -0.066934 -0.038645  0.000000      0.012346
  0.000000  0.077289  0.000000      0.012346
  0.000000 -0.077289  0.000000      0.012346
 -0.066934  0.038645  0.000000      0.012346
  0.066934 -0.038645  0.000000      0.012346
  0.100402  0.057967  0.000000      0.012346
 -0.100402 -0.057967  0.000000      0.012346
  0.000000  0.115934  0.000000      0.012346
  0.000000 -0.115934  0.000000      0.012346
 -0.100402  0.057967  0.000000      0.012346
  0.100402 -0.057967  0.000000      0.012346
  0.133869  0.077289  0.000000      0.012346
 -0.133869 -0.077289  0.000000      0.012346
  0.000000  0.154578  0.000000      0.012346
  0.000000 -0.154578  0.000000      0.012346
 -0.133869  0.077289  0.000000      0.012346
  0.133869 -0.077289  0.000000      0.012346
  0.033467  0.057967  0.000000      0.012346
 -0.033467 -0.057967  0.000000      0.012346
 -0.033467  0.057967  0.000000      0.012346
  0.033467 -0.057967  0.000000      0.012346
 -0.066934 -0.000000  0.000000      0.012346
  0.066934  0.000000  0.000000      0.012346
  0.066934  0.077289  0.000000      0.012346
 -0.066934 -0.077289  0.000000      0.012346
 -0.033467  0.096611  0.000000      0.012346
  0.033467 -0.096611  0.000000      0.012346
 -0.100402  0.019322  0.000000      0.012346
  0.100402 -0.019322  0.000000      0.012346
 -0.066934  0.077289  0.000000      0.012346
  0.066934 -0.077289  0.000000      0.012346
  0.033467  0.096611  0.000000      0.012346
 -0.033467 -0.096611  0.000000      0.012346
  0.100402  0.019322  0.000000      0.012346
 -0.100402 -0.019322  0.000000      0.012346
  0.100402  0.096611  0.000000      0.012346
 -0.100402 -0.096611  0.000000      0.012346
 -0.033467  0.135256  0.000000      0.012346
  0.033467 -0.135256  0.000000      0.012346
 -0.133869  0.038645  0.000000      0.012346
  0.133869 -0.038645  0.000000      0.012346
 -0.100402  0.096611  0.000000      0.012346
  0.100402 -0.096611  0.000000      0.012346
  0.033467  0.135256  0.000000      0.012346
 -0.033467 -0.135256  0.000000      0.012346
  0.133869  0.038645  0.000000      0.012346
 -0.133869 -0.038645  0.000000      0.012346
  0.133869  0.115934  0.000000      0.012346
 -0.133869 -0.115934  0.000000      0.012346
 -0.033467 -0.173901  0.000000      0.012346
  0.033467  0.173901  0.000000      0.012346
  0.133869  0.231868  0.000000      0.012346
[...]
 -0.036042  0.062426  0.000000      0.000000
 -0.033467  0.057967  0.000000      0.000000
 -0.030893  0.053508  0.000000      0.000000
 -0.028318  0.049049  0.000000      0.000000
 -0.025744  0.044590  0.000000      0.000000
 -0.023170  0.040131  0.000000      0.000000
 -0.020595  0.035672  0.000000      0.000000
 -0.018021  0.031213  0.000000      0.000000
 -0.015446  0.026754  0.000000      0.000000
 -0.012872  0.022295  0.000000      0.000000
 -0.010298  0.017836  0.000000      0.000000
 -0.007723  0.013377  0.000000      0.000000
 -0.005149  0.008918  0.000000      0.000000
 -0.002574  0.004459  0.000000      0.000000
  0.000000  0.000000  0.000000      0.000000

 Subroutine IBZKPT_HF returns following result:

 Found    201 k-points in 1st BZ
 the following    201 k-points will be used (e.g. in the exchange kernel)
 Following reciprocal coordinates:   # in IRBZ
  0.000000  0.000000  0.000000    0.01234568   1 t-inv F
[...]

 k-point   1 :   0.0000 0.0000 0.0000  plane waves:    2150
 k-point   2 :   0.1111 0.0000 0.0000  plane waves:    2122
 k-point   3 :  -0.1111 0.0000 0.0000  plane waves:    2122
 k-point   4 :   0.0000 0.1111 0.0000  plane waves:    2122
 k-point   5 :   0.0000-0.1111 0.0000  plane waves:    2122
 k-point   6 :  -0.1111 0.1111 0.0000  plane waves:    2122
 k-point   7 :   0.1111-0.1111 0.0000  plane waves:    2122
 k-point   8 :   0.2222 0.0000 0.0000  plane waves:    2166
 k-point   9 :  -0.2222 0.0000 0.0000  plane waves:    2166
 k-point  10 :   0.0000 0.2222 0.0000  plane waves:    2166
 k-point  11 :   0.0000-0.2222 0.0000  plane waves:    2166
 k-point  12 :  -0.2222 0.2222 0.0000  plane waves:    2166
 k-point  13 :   0.2222-0.2222 0.0000  plane waves:    2166
 k-point  14 :   0.3333 0.0000 0.0000  plane waves:    2170
 k-point  15 :  -0.3333 0.0000 0.0000  plane waves:    2170
 k-point  16 :   0.0000 0.3333 0.0000  plane waves:    2170
 k-point  17 :   0.0000-0.3333 0.0000  plane waves:    2170
 k-point  18 :  -0.3333 0.3333 0.0000  plane waves:    2170
 k-point  19 :   0.3333-0.3333 0.0000  plane waves:    2170
 k-point  20 :   0.4444 0.0000 0.0000  plane waves:    2198
 k-point  21 :  -0.4444 0.0000 0.0000  plane waves:    2198
 k-point  22 :   0.0000 0.4444 0.0000  plane waves:    2198
 k-point  23 :   0.0000-0.4444 0.0000  plane waves:    2198
 k-point  24 :  -0.4444 0.4444 0.0000  plane waves:    2198
 k-point  25 :   0.4444-0.4444 0.0000  plane waves:    2198
 k-point  26 :   0.1111 0.1111 0.0000  plane waves:    2164
 k-point  27 :  -0.1111-0.1111 0.0000  plane waves:    2164
 k-point  28 :  -0.1111 0.2222 0.0000  plane waves:    2164
 k-point  29 :   0.1111-0.2222 0.0000  plane waves:    2164
 k-point  30 :  -0.2222 0.1111 0.0000  plane waves:    2164
 k-point  31 :   0.2222-0.1111 0.0000  plane waves:    2164
 k-point  32 :   0.2222 0.1111 0.0000  plane waves:    2194
 k-point  33 :  -0.2222-0.1111 0.0000  plane waves:    2194
 k-point  34 :  -0.1111 0.3333 0.0000  plane waves:    2194
 k-point  35 :   0.1111-0.3333 0.0000  plane waves:    2194
 k-point  36 :  -0.3333 0.2222 0.0000  plane waves:    2194
 k-point  37 :   0.3333-0.2222 0.0000  plane waves:    2194
 k-point  38 :  -0.2222 0.3333 0.0000  plane waves:    2194
 k-point  39 :   0.2222-0.3333 0.0000  plane waves:    2194
 k-point  40 :   0.1111 0.2222 0.0000  plane waves:    2194
 k-point  41 :  -0.1111-0.2222 0.0000  plane waves:    2194
 k-point  42 :   0.3333-0.1111 0.0000  plane waves:    2194
 k-point  43 :  -0.3333 0.1111 0.0000  plane waves:    2194
 k-point  44 :   0.3333 0.1111 0.0000  plane waves:    2206
 k-point  45 :  -0.3333-0.1111 0.0000  plane waves:    2206
 k-point  46 :  -0.1111 0.4444 0.0000  plane waves:    2206
 k-point  47 :   0.1111-0.4444 0.0000  plane waves:    2206
 k-point  48 :  -0.4444 0.3333 0.0000  plane waves:    2206
 k-point  49 :   0.4444-0.3333 0.0000  plane waves:    2206
 k-point  50 :  -0.3333 0.4444 0.0000  plane waves:    2206
 k-point  51 :   0.3333-0.4444 0.0000  plane waves:    2206
 k-point  52 :   0.1111 0.3333 0.0000  plane waves:    2206
 k-point  53 :  -0.1111-0.3333 0.0000  plane waves:    2206
 k-point  54 :   0.4444-0.1111 0.0000  plane waves:    2206
 k-point  55 :  -0.4444 0.1111 0.0000  plane waves:    2206
 k-point  56 :   0.4444 0.1111 0.0000  plane waves:    2208
 k-point  57 :  -0.4444-0.1111 0.0000  plane waves:    2208
 k-point  58 :  -0.1111-0.4444 0.0000  plane waves:    2208
 k-point  59 :   0.1111 0.4444 0.0000  plane waves:    2208
 k-point  60 :   0.4444 0.4444 0.0000  plane waves:    2208
[...]
 k-point 187 :  -0.1197 0.2393 0.0000  plane waves:    2172
 k-point 188 :  -0.1111 0.2222 0.0000  plane waves:    2164
 k-point 189 :  -0.1026 0.2051 0.0000  plane waves:    2164
 k-point 190 :  -0.0940 0.1880 0.0000  plane waves:    2156
 k-point 191 :  -0.0855 0.1709 0.0000  plane waves:    2148
 k-point 192 :  -0.0769 0.1538 0.0000  plane waves:    2128
 k-point 193 :  -0.0684 0.1368 0.0000  plane waves:    2124
 k-point 194 :  -0.0598 0.1197 0.0000  plane waves:    2116
 k-point 195 :  -0.0513 0.1026 0.0000  plane waves:    2108
 k-point 196 :  -0.0427 0.0855 0.0000  plane waves:    2112
 k-point 197 :  -0.0342 0.0684 0.0000  plane waves:    2104
 k-point 198 :  -0.0256 0.0513 0.0000  plane waves:    2114
 k-point 199 :  -0.0171 0.0342 0.0000  plane waves:    2114
 k-point 200 :  -0.0085 0.0171 0.0000  plane waves:    2130
 k-point 201 :   0.0000 0.0000 0.0000  plane waves:    2150

 maximum and minimum number of plane-waves per node :       308      248

 maximum number of plane-waves:      2228
 maximum index in each direction:
   IXMAX=    4   IYMAX=    4   IZMAX=   18
   IXMIN=   -4   IYMIN=   -4   IZMIN=  -18

 parallel 3D FFT for wavefunctions:
    minimum data exchange during FFTs selected (reduces bandwidth)
 parallel 3D FFT for charge:
    minimum data exchange during FFTs selected (reduces bandwidth)

 FFT grid for exact exchange (Hartree Fock)
  NGX = 14; NGY = 14; NGZ = 60

 Radii for the augmentation spheres in the non-local exchange
 for species   1 augmentation radius   1.537 (default was   1.230)
       energy cutoff for augmentation    898.3
 for species   2 augmentation radius   1.351 (default was   1.081)
       energy cutoff for augmentation    898.3

 real space projection operators:
  max/ min on nodes  :         92.19         21.88

 Maximum index for augmentation-charges in exchange          192
  SETUP_FOCK is finished

 Broyden mixing: mesh for mixing (old mesh)
   NGX =  9   NGY =  9   NGZ = 37
  (NGX  = 32   NGY  = 32   NGZ  =160)
  gives a total of   2997 points

 initial charge density was supplied:
 number of electron      18.0000002 magnetization       0.0000002      0.0000002     -0.0000005
 keeping initial charge density in first step

 Maximum index for augmentation-charges          379 (set IRDMAX)

 First call to EWALD:  gamma=   0.339
 Maximum number of real-space cells 5x 5x 1
 Maximum number of reciprocal cells 2x 2x 7

--------------------------------------- Iteration      1(   1)  ---------------------------------------

 eigenvalue-minimisations  : 19264
 total energy-change (2. order) :-0.1823602E+04  (-0.4522345E+03)
 number of electron      18.0000002 magnetization       0.0000002      0.0000002     -0.0000005
 augmentation part       18.0000002 magnetization       0.0000002      0.0000002     -0.0000005

 Free energy of the ion-electron system (eV)
  alpha Z        PSCENC =        28.99437212
  Ewald energy   TEWEN  =       932.31351475
  -Hartree energ DENC   =     -1638.46871676
  -exchange      EXHF   =         0.00000000
  -V(xc)+E(xc)   XCENC  =       -60.95292254
  PAW double counting   =      1370.64938994    -3179.67165259
  entropy T*S    EENTRO =        -0.01024969
  eigenvalues    EBANDS =        -1.24934601
  atomic energy  EATOM  =       724.79368622
  free energy    TOTEN  =     -1823.60192456 eV

  energy without entropy =    -1823.59167487  energy(sigma->0) =    -1823.59679971
  exchange ACFDT corr.  =         0.00000000  see jH, gK, PRB 81, 115126

[...]

 eigenvalue-minimisations  : 21760
 total energy-change (2. order) : 0.1932586E+04  (-0.1262774E+01)
 number of electron      18.0000002 magnetization      -0.0000549     -0.0000528      0.0002627
 augmentation part       -0.8403752 magnetization       0.0005401      0.0007258     -0.0007427

[...]

 eigenvalue-minimisations  :     0
 total energy-change (2. order) : 0.1395065E+01  (-0.5806458E+01)
 number of electron      18.0000002 magnetization      -0.0000230     -0.0000390      0.0000834
 augmentation part       -1.1506313 magnetization       0.0003194      0.0006022     -0.0008199

[...]

--------------------------------------- Iteration      1(  23)  ---------------------------------------

 eigenvalue-minimisations  :     0
 total energy-change (2. order) :-0.3845012E-06  (-0.1183935E-06)
 number of electron      18.0000002 magnetization       0.0000000      0.0000003     -0.0000004
 augmentation part       -1.0996718 magnetization       0.0000143      0.0000739     -0.0000722

 Free energy of the ion-electron system (eV)
  alpha Z        PSCENC =        28.99437212
  Ewald energy   TEWEN  =       932.31351475
  -Hartree energ DENC   =     -1638.45514413
  -exchange      EXHF   =        27.41265869
  -V(xc)+E(xc)   XCENC  =       -49.82908651
  PAW double counting   =      1364.03034693    -1285.94942686
  entropy T*S    EENTRO =        -0.00000000
  eigenvalues    EBANDS =      -127.27901921
  atomic energy  EATOM  =       724.79368622
  free energy    TOTEN  =       -23.96811729 eV

  energy without entropy =      -23.96811729  energy(sigma->0) =      -23.96811729
  exchange ACFDT corr.  =        -0.00000000  see jH, gK, PRB 81, 115126

  average scaling for gradient   0.8683

 average (electrostatic) potential at core
  the test charge radii are     1.2296  1.0808
  (the norm of the test charge is              1.0000)
       1 -40.3947       2 -55.6516       3 -55.6516

 E-fermi :  -0.9875     XC(G=0):  -4.3642     alpha+bet : -4.5538

 Fermi energy:        -0.9875321083

 k-point     1 :       0.0000    0.0000    0.0000
  band No.  band energies     occupation
      1     -17.2056      1.00000
      2     -17.2055      1.00000
      3     -16.1486      1.00000
      4     -16.1485      1.00000
      5      -7.6056      1.00000
      6      -7.6056      1.00000
      7      -4.0826      1.00000
      8      -4.0825      1.00000
      9      -4.0756      1.00000
     10      -4.0755      1.00000
     11      -3.6130      1.00000
     12      -3.6129      1.00000
     13      -2.9946      1.00000
     14      -2.9945      1.00000
     15      -2.7482      1.00000
     16      -2.7481      1.00000
     17      -1.8601      1.00000
     18      -1.8600      1.00000
     19       1.8031      0.00000
     20       1.8031      0.00000
     21       2.0937      0.00000
     22       2.0937      0.00000
     23       2.0957      0.00000
     24       2.0957      0.00000
     25       2.3062      0.00000
     26       2.3062      0.00000
     27       3.5815      0.00000
     28       3.5817      0.00000
     29       4.3082      0.00000
     30       4.3082      0.00000
     31       5.0914      0.00000
     32       5.4837      0.00000

[...]

 k-point   201 :       0.0000    0.0000    0.0000
  band No.  band energies     occupation
      1     -17.2056      1.00000
      2     -17.2055      1.00000
      3     -16.1486      1.00000
      4     -16.1485      1.00000
      5      -7.6056      1.00000
      6      -7.6056      1.00000
      7      -4.0826      1.00000
      8      -4.0825      1.00000
      9      -4.0756      1.00000
     10      -4.0755      1.00000
     11      -3.6130      1.00000
     12      -3.6129      1.00000
     13      -2.9946      1.00000
     14      -2.9945      1.00000
     15      -2.7482      1.00000
     16      -2.7481      1.00000
     17      -1.8601      1.00000
     18      -1.8600      1.00000
     19       1.8031      0.00000
     20       1.8031      0.00000
     21       2.0937      0.00000
     22       2.0937      0.00000
     23       2.0957      0.00000
     24       2.0957      0.00000
     25       2.3062      0.00000
     26       2.3062      0.00000
     27       3.5815      0.00000
     28       3.5815      0.00000
     29       4.3081      0.00000
     30       4.3085      0.00000
     31       5.0735      0.00000
     32       5.4029      0.00000

 soft charge-density along one line, spin component           1
         0         1         2         3         4         5         6         7         8         9
 total charge-density along one line

[...]

 soft charge-density along one line, spin component           4
         0         1         2         3         4         5         6         7         8         9
 total charge-density along one line

------------------------ aborting loop because EDIFF is reached ----------------------------------------

 total charge

# of ion       s       p       d       tot
    1        0.411   0.532   4.334   5.277
    2        1.490   2.364   0.060   3.914
    3        1.490   2.364   0.060   3.914
tot          3.390   5.261   4.455  13.106

 magnetization (x)

[...]

 magnetization (y)

[...]

 magnetization (z)

[...]

 VOLUME and BASIS-vectors are now :
  energy-cutoff  :      224.58
  volume of cell :      143.19
      direct lattice vectors                 reciprocal lattice vectors
     3.320000000  0.000000000  0.000000000     0.301204819  0.173900683  0.000000000
    -1.660000000  2.875204341  0.000000000     0.000000000  0.347801367  0.000000000
     0.000000000  0.000000000 15.000000000     0.000000000  0.000000000  0.066666667

  length of vectors
     3.320000000  3.320000000 15.000000000     0.347801367  0.347801367  0.066666667

 FORCES acting on ions:
    Electron-Ion                     Ewald-Force                    Non-Local-Force
   -.758E-04 0.650E-03 0.452E-04   0.840E-04 -.764E-03 -.105E-04   -.145E-04 -.165E-03 -.472E-04
   -.907E-03 -.880E-03 0.430E+03   0.106E-02 0.102E-02 -.432E+03   0.167E-03 0.175E-03 0.263E+01
   0.996E-03 0.218E-03 -.430E+03   -.114E-02 -.255E-03 0.432E+03   -.213E-03 -.456E-04 -.263E+01
   0.915E-05 -.178E-05 0.617E-05   -.962E-14 -.634E-15 0.000E+00   -.609E-04 -.358E-04 -.287E-04

 POSITION                                       TOTAL-FORCE (eV/Angst)
      1.63433      0.94359      7.50683         0.000024     -0.000249      0.000003
      1.63428      2.86035      5.83830         0.000336      0.000327      0.539796
      1.63439      2.86041      9.17536        -0.000360     -0.000078     -0.539799
    total drift:                               -0.000075     -0.000047     -0.000042

  FREE ENERGIE OF THE ION-ELECTRON SYSTEM (eV)
  free  energy   TOTEN  =       -23.96811729 eV

  energy  without entropy=      -23.96811729  energy(sigma->0) =      -23.96811729

 writing wavefunctions

 Spin-Orbit-Coupling matrix elements

 Ion:    1  E_soc:     -0.0327693
 l=   1
     0.0000000    -0.0021225    -0.0018871
    -0.0021225     0.0000000    -0.0021225
    -0.0018871    -0.0021225     0.0000000
 l=   2
     0.0000000    -0.0005574     0.0000000    -0.0005575    -0.0034405
    -0.0005574     0.0000000    -0.0020429    -0.0004970    -0.0005575
     0.0000000    -0.0020429     0.0000000    -0.0020426     0.0000000
    -0.0005575    -0.0004970    -0.0020426     0.0000000    -0.0005572
    -0.0034405    -0.0005575     0.0000000    -0.0005572     0.0000000
 l=   3
     0.0000000     0.0000000     0.0000000     0.0000000     0.0000000     0.0000000     0.0000000
     0.0000000     0.0000000     0.0000000     0.0000000     0.0000000     0.0000000     0.0000000
     0.0000000     0.0000000     0.0000000     0.0000000     0.0000000     0.0000000     0.0000000
     0.0000000     0.0000000     0.0000000     0.0000000     0.0000000     0.0000000     0.0000000
     0.0000000     0.0000000     0.0000000     0.0000000     0.0000000     0.0000000     0.0000000
     0.0000000     0.0000000     0.0000000     0.0000000     0.0000000     0.0000000     0.0000000
     0.0000000     0.0000000     0.0000000     0.0000000     0.0000000     0.0000000     0.0000000

[...]

 Ion:    3  E_soc:     -0.0399163
 l=   1
     0.0000000    -0.0065340    -0.0068943
    -0.0065340     0.0000000    -0.0065339
    -0.0068943    -0.0065339     0.0000000
 l=   2
     0.0000000     0.0000007     0.0000000     0.0000007    -0.0000052
     0.0000007     0.0000000    -0.0000005     0.0000076     0.0000007
     0.0000000    -0.0000005     0.0000000    -0.0000005     0.0000000
     0.0000007     0.0000076    -0.0000005     0.0000000     0.0000007
    -0.0000052     0.0000007     0.0000000     0.0000007     0.0000000
 l=   3
     0.0000000     0.0000000     0.0000000     0.0000000     0.0000000     0.0000000     0.0000000
     0.0000000     0.0000000     0.0000000     0.0000000     0.0000000     0.0000000     0.0000000
     0.0000000     0.0000000     0.0000000     0.0000000     0.0000000     0.0000000     0.0000000
     0.0000000     0.0000000     0.0000000     0.0000000     0.0000000     0.0000000     0.0000000
     0.0000000     0.0000000     0.0000000     0.0000000     0.0000000     0.0000000     0.0000000
     0.0000000     0.0000000     0.0000000     0.0000000     0.0000000     0.0000000     0.0000000
     0.0000000     0.0000000     0.0000000     0.0000000     0.0000000     0.0000000     0.0000000

 total charge

[...]

 magnetization (x)

[...]

 magnetization (y)

[...]

 magnetization (z)

# of ion       s       p       d       tot
    1       -0.000  -0.000  -0.000  -0.000
    2        0.000   0.000  -0.000   0.000
    3        0.000   0.000  -0.000   0.000
tot          0.000   0.000  -0.000  -0.000