 vasp.6.3.0 20Jan22 (build Oct 03 2022 14:51:58) complex

 executed on             LinuxIFC date 2025.02.09  21:50:29

 INCAR:
   SYSTEM = MoSe2
   PREC = Normal
   ISPIN = 1
   ISTART = 0
   ICHARG = 2
   NPAR = 8
   ISMEAR = 0
   SIGMA = 0.1
   ALGO = Normal
   NELMIN = 4
   NELM = 200
   EDIFF = 1E-6
   EDIFFG = -0.001
   ISYM = 0
   IBRION = -1
   LORBIT = 11
   NWRITE = 1
   LWAVE = .TRUE.
   LCHARG = .TRUE.
   LSORBIT = .TRUE.

 POTCAR:    PAW_PBE Mo 08Apr2002
 POTCAR:    PAW_PBE Se 06Sep2000
|           W    W    AA    RRRRR   N    N  II  N    N   GGGG   !!!           |
|           W    W   A  A   R    R  NN   N  II  NN   N  G    G  !!!           |
|           W    W  A    A  R    R  N N  N  II  N N  N  G       !!!           |
|           W WW W  AAAAAA  RRRRR   N  N N  II  N  N N  G  GGG   !            |
|           WW  WW  A    A  R   R   N   NN  II  N   NN  G    G                |
|           W    W  A    A  R    R  N    N  II  N    N   GGGG   !!!           |
|     You use a magnetic or noncollinear calculation, but did not specify     |
|     the initial magnetic moment with the MAGMOM tag. Note that a            |
|     default of 1 will be used for all atoms. This ferromagnetic setup       |
|     may break the symmetry of the crystal, in particular it may rule        |
|     out finding an antiferromagnetic solution. Thence, we recommend         |
|     setting the initial magnetic moment manually or verifying carefully     |
|     that this magnetic setup is desired.                                    |

 POTCAR:    PAW_PBE Mo 08Apr2002

 POTCAR:    PAW_PBE Se 06Sep2000

  PAW_PBE Mo 08Apr2002                  :
  PAW_PBE Se 06Sep2000                  :

 POSCAR: Mo Se
  positions in direct lattice
  velocities in cartesian coordinates
 exchange correlation table for  LEXCH =        8
   RHO(1)=    0.500       N(1)  =     2000
   RHO(2)=  100.500       N(2)  =     4000

 VTST: version 4.2, (08/11/21)

 CHAIN: initializing optimizer

 OPT: Using VASP Dynamics algorithm
 CHAIN: Read ICHAIN            0

 POSCAR: Mo Se
  positions in direct lattice
  velocities in cartesian coordinates

 ion  position               nearest neighbor table
   1  0.915  0.833  0.500-  36 2.54  32 2.54  29 2.54  35 2.54  15 2.55  14 2.55   5 3.32   7 3.32
                             4 3.32   3 3.32   9 3.32   2 3.32
   2  0.664  0.667  0.500-  20 2.54  14 2.54  15 2.54  13 2.54  16 2.55  17 2.55  11 3.32  12 3.32
                             9 3.32   8 3.32   1 3.32   4 3.32
   3  0.915  0.167  0.500-  36 2.54  33 2.54  34 2.54  35 2.54  18 2.55  19 2.55   6 3.32   7 3.32
                             4 3.32   1 3.32   9 3.32   8 3.32
   4  0.915  0.500  0.500-  33 2.54  32 2.54  34 2.54  29 2.54  13 2.55  20 2.55   6 3.32   5 3.32
                             3 3.32   1 3.32   2 3.32   8 3.32
   5  0.164  0.667  0.500-  27 2.54  21 2.54  22 2.54  28 2.54  29 2.55  32 2.55   4 3.32   1 3.32
                             7 3.32   6 3.32  12 3.32  11 3.32
   6  0.164  0.333  0.500-  27 2.54  30 2.54  31 2.54  28 2.54  34 2.55  33 2.55   4 3.32   3 3.32
                             7 3.32   5 3.32  10 3.32  11 3.32
   7  0.164  0.000  0.500-  30 2.54  21 2.54  31 2.54  22 2.54  35 2.55  36 2.55   3 3.32   1 3.32
                             6 3.32   5 3.32  10 3.32  12 3.32
   8  0.664  0.333  0.500-  20 2.54  19 2.54  18 2.54  13 2.54  25 2.55  26 2.55  11 3.32  10 3.32
                             9 3.32   2 3.32   3 3.32   4 3.32
   9  0.664  0.000  0.500-  19 2.54  14 2.54  18 2.54  15 2.54  24 2.55  23 2.55  12 3.32  10 3.32
                             8 3.32   2 3.32   3 3.32   1 3.32
  10  0.415  0.167  0.500-  23 2.54  26 2.54  25 2.54  24 2.54  31 2.55  30 2.55   8 3.32   9 3.32
                            11 3.32  12 3.32   7 3.32   6 3.32
  11  0.415  0.500  0.500-  26 2.54  17 2.54  25 2.54  16 2.54  28 2.55  27 2.55   8 3.32   2 3.32
                            10 3.32  12 3.32   6 3.32   5 3.32
  12  0.415  0.833  0.500-  23 2.54  17 2.54  16 2.54  24 2.54  22 2.55  21 2.55   2 3.32   9 3.32
                            11 3.32  10 3.32   7 3.32   5 3.32
  13  0.747  0.500  0.612-   2 2.54   8 2.54   4 2.55
  14  0.747  0.833  0.389-   9 2.54   2 2.54   1 2.55
  15  0.747  0.833  0.612-   9 2.54   2 2.54   1 2.55
  16  0.497  0.667  0.612-  11 2.54  12 2.54   2 2.55
  17  0.497  0.667  0.389-  11 2.54  12 2.54   2 2.55
  18  0.747  0.167  0.612-   9 2.54   8 2.54   3 2.55
  19  0.747  0.167  0.389-   9 2.54   8 2.54   3 2.55
  20  0.747  0.500  0.389-   2 2.54   8 2.54   4 2.55
  21  0.247  0.833  0.389-   7 2.54   5 2.54  12 2.55
  22  0.247  0.833  0.612-   7 2.54   5 2.54  12 2.55
  23  0.497  0.000  0.389-  12 2.54  10 2.54   9 2.55
  24  0.497  0.000  0.612-  12 2.54  10 2.54   9 2.55
  25  0.497  0.333  0.612-  11 2.54  10 2.54   8 2.55
  26  0.497  0.333  0.389-  11 2.54  10 2.54   8 2.55
  27  0.247  0.500  0.389-   5 2.54   6 2.54  11 2.55
  28  0.247  0.500  0.612-   5 2.54   6 2.54  11 2.55
  29  0.997  0.667  0.612-   4 2.54   1 2.54   5 2.55
  30  0.247  0.167  0.389-   7 2.54   6 2.54  10 2.55
  31  0.247  0.167  0.612-   7 2.54   6 2.54  10 2.55
  32  0.997  0.667  0.389-   4 2.54   1 2.54   5 2.55
  33  0.997  0.333  0.389-   4 2.54   3 2.54   6 2.55
  34  0.997  0.333  0.612-   4 2.54   3 2.54   6 2.55
  35  0.997  1.000  0.612-   1 2.54   3 2.54   7 2.55
  36  0.997  1.000  0.389-   1 2.54   3 2.54   7 2.55

IMPORTANT INFORMATION: All symmetrisations will be switched off!
NOSYMM: (Re-)initialisation of all symmetry stuff for point group C_1.

                                     Primitive cell

  volume of cell :    1718.2221

  direct lattice vectors                    reciprocal lattice vectors
     9.960000000  5.750408681  0.000000000     0.075301205  0.043475171  0.000000000
    -4.980000000  8.625613022  0.000000000    -0.050200803  0.086950342  0.000000000
     0.000000000  0.000000000 15.000000000     0.000000000  0.000000000  0.066666667

  length of vectors
    11.500817362  9.960000000 15.000000000     0.086950342  0.100401606  0.066666667

  position of ions in fractional coordinates (direct lattice)
     0.914501067  0.833331558  0.500454366
     0.664492915  0.666668392  0.500454345
     0.914501061  0.166668434  0.500454366
     0.914504667  0.499999980  0.500454872
     0.164492929  0.666668423  0.500454345
     0.164492925  0.333331533  0.500454345
     0.164496571  0.000000023  0.500454857
     0.664492882  0.333331570  0.500454347
     0.664496574  0.000000019  0.500454855
     0.414501037  0.166668483  0.500454367
     0.414504685  0.499999956  0.500454874
     0.414501056  0.833331536  0.500454365
     0.747239920  0.500000016  0.611628017
     0.747226185  0.833341212  0.389281519
     0.747230310  0.833339675  0.611628853
     0.497205288  0.666660468  0.611631429
     0.497201088  0.666658925  0.389278970
     0.747230322  0.166660310  0.611628855
     0.747226194  0.166658772  0.389281520
     0.747235293  0.500000012  0.389284815
     0.247226198  0.833341226  0.389281518
     0.247230322  0.833339693  0.611628859
     0.497210268  0.000000004  0.389282263
     0.497214968  0.000000002  0.611630608
     0.497205277  0.333339557  0.611631428
     0.497201083  0.333341097  0.389278976
     0.247235301  0.500000012  0.389284815
     0.247239918  0.500000015  0.611628013
     0.997205273  0.666660475  0.611631431
     0.247226203  0.166658754  0.389281531
     0.247230323  0.166660294  0.611628848
     0.997201079  0.666658937  0.389278966
     0.997201083  0.333341090  0.389278966
     0.997205278  0.333339553  0.611631427
     0.997214968  0.999999996  0.611630603
     0.997210267  0.999999995  0.389282269

  ion indices of the primitive-cell ions
   primitive index   ion index
                 1           1
                 2           2
                 3           3
                 4           4
                 5           5
                 6           6
                 7           7
                 8           8
                 9           9
                10          10
                11          11
                12          12
                13          13
                14          14
                15          15
                16          16
                17          17
                18          18
                19          19
                20          20
                21          21
                22          22
                23          23
                24          24
                25          25
                26          26
                27          27
                28          28
                29          29
                30          30
                31          31
                32          32
                33          33
                34          34
                35          35
                36          36

 KPOINTS: Automatic mesh

Automatic generation of k-mesh.
 Grid dimensions read from file:
 generate k-points for:    1    1    1

 Generating k-lattice:

  Cartesian coordinates                     Fractional coordinates (reciprocal lattice)
     0.075301205  0.043475171  0.000000000     1.000000000  0.000000000  0.000000000
    -0.050200803  0.086950342  0.000000000    -0.000000000  1.000000000  0.000000000
     0.000000000  0.000000000  0.066666667     0.000000000  0.000000000  1.000000000

  Length of vectors
     0.086950342  0.100401606  0.066666667

  Shift w.r.t. Gamma in fractional coordinates (k-lattice)
     0.000000000  0.000000000  0.000000000

 Subroutine IBZKPT returns following result:

 Found      1 irreducible k-points:

 Following reciprocal coordinates:
            Coordinates               Weight
  0.000000  0.000000  0.000000      1.000000

 Following cartesian coordinates:
            Coordinates               Weight
  0.000000  0.000000  0.000000      1.000000

 SYSTEM =  MoSe2
 POSCAR =  Mo Se

 Startparameter for this run:
   NWRITE =      1    write-flag & timer
   PREC   = normal    normal or accurate (medium, high low for compatibility)
   ISTART =      0    job   : 0-new  1-cont  2-samecut
   ICHARG =      2    charge: 1-file 2-atom 10-const
   ISPIN  =      1    spin polarized calculation?
   LNONCOLLINEAR =      T non collinear calculations
   LSORBIT =      T    spin-orbit coupling
   INIWAV =      1    electr: 0-lowe 1-rand  2-diag
   LASPH  =      F    aspherical Exc in radial PAW
 Electronic Relaxation 1
   ENCUT  =  224.6 eV  16.51 Ry    4.06 a.u.  14.05 12.17 18.33*2*pi/ulx,y,z
   ENINI  =  224.6     initial cutoff
   ENAUG  =  446.8 eV  augmentation charge cutoff
   NELM   =    200;   NELMIN=  4; NELMDL= -5     # of ELM steps
   EDIFF  = 0.1E-05   stopping-criterion for ELM
   LREAL  =      F    real-space projection
   NLSPLINE    = F    spline interpolate recip. space projectors
   LCOMPAT=      F    compatible to vasp.4.4
   GGA_COMPAT  = T    GGA compatible to vasp.4.4-vasp.4.6
   LMAXPAW     = -100 max onsite density
   LMAXMIX     =    2 max onsite mixed and CHGCAR
   VOSKOWN=      0    Vosko Wilk Nusair interpolation
   ROPT   =    0.00000   0.00000
 Ionic relaxation
   EDIFFG = -.1E-02   stopping-criterion for IOM
[...]
     23     -13.8912      1.00000
     24     -13.8912      1.00000
     25     -13.8058      1.00000
     26     -13.8058      1.00000
     27     -13.8049      1.00000
     28     -13.8049      1.00000
     29     -13.6220      1.00000
     30     -13.6220      1.00000
     31     -13.5345      1.00000
     32     -13.5345      1.00000
     33     -13.5340      1.00000
     34     -13.5340      1.00000
     35     -13.5336      1.00000
     36     -13.5336      1.00000
     37     -13.5331      1.00000
     38     -13.5331      1.00000
     39     -13.3919      1.00000
     40     -13.3919      1.00000
     41     -13.3806      1.00000
     42     -13.3806      1.00000
     43     -13.3685      1.00000
     44     -13.3685      1.00000
     45     -13.2167      1.00000
     46     -13.2167      1.00000
     47     -13.2143      1.00000
     48     -13.2143      1.00000
     49      -6.7313      1.00000
     50      -6.7313      1.00000
     51      -6.4879      1.00000
     52      -6.4879      1.00000
     53      -6.2282      1.00000
     54      -6.2282      1.00000
     55      -6.2280      1.00000
     56      -6.2280      1.00000
     57      -6.2235      1.00000
     58      -6.2235      1.00000
     59      -6.2232      1.00000
     60      -6.2232      1.00000
[...]
    282       1.9632      0.00000
    283       1.9639      0.00000
    284       1.9639      0.00000
    285       1.9788      0.00000
    286       1.9788      0.00000
    287       2.0528      0.00000
    288       2.0528      0.00000
    289       2.3800      0.00000
    290       2.3800      0.00000
    291       2.4944      0.00000
    292       2.4951      0.00000
    293       2.4960      0.00000
    294       2.5095      0.00000
    295       2.6919      0.00000
    296       2.7057      0.00000

 soft charge-density along one line, spin component           1
         0         1         2         3         4         5         6         7         8         9
 total charge-density along one line

[...]

 soft charge-density along one line, spin component           4
         0         1         2         3         4         5         6         7         8         9
 total charge-density along one line

------------------------ aborting loop because EDIFF is reached ----------------------------------------

[...]

  FORCE on cell =-STRESS in cart. coord.  units (eV):
  Direction    XX          YY          ZZ          XY          YZ          ZX
  Alpha Z   347.93247   347.93247   347.93247
  Ewald   17696.22421 17704.96813-24203.96077    -7.57274    -0.01031    -0.01784
  Hartree 19328.82652 19331.22218-18971.41063    -2.07475    -0.00114    -0.00198
  E(xc)    -869.45422  -870.47791  -878.51285     0.88654     0.00035     0.00060
  Local  -39903.71495-39917.33807 40257.31228    11.79828     0.01071     0.01855
  n-local   754.23320   753.60597   823.77261     0.54318    -0.00179    -0.00310
  augment    14.22796    15.25020     0.76767    -0.88528     0.00107     0.00185
  Kinetic  2628.28278  2633.10464  2620.01694    -4.17583    -0.00175    -0.00304
  Fock        0.00000     0.00000     0.00000     0.00000     0.00000     0.00000
  Total      -3.44202    -1.73240    -4.08227    -1.48060    -0.00287    -0.00496
  in kB      -3.20956    -1.61540    -3.80657    -1.38060    -0.00267    -0.00463

 VOLUME and BASIS-vectors are now :
  energy-cutoff  :      224.58
  volume of cell :     1718.22
      direct lattice vectors                 reciprocal lattice vectors
     9.960000000  5.750408681  0.000000000     0.075301205  0.043475171  0.000000000
    -4.980000000  8.625613022  0.000000000    -0.050200803  0.086950342  0.000000000
     0.000000000  0.000000000 15.000000000     0.000000000  0.000000000  0.066666667

  length of vectors
    11.500817362  9.960000000 15.000000000     0.086950342  0.100401606  0.066666667

 FORCES acting on ions
    electron-ion (+dipol)            ewald-force                    non-local-force                 convergence-correction
   0.183E+00 0.106E+00 0.967E-03   -.280E+00 -.162E+00 -.790E-03   0.980E-01 0.565E-01 -.553E-03   0.173E-04 0.688E-05 0.304E-05
   0.202E+00 0.116E+00 0.110E-02   -.299E+00 -.173E+00 -.915E-03   0.987E-01 0.571E-01 -.552E-03   0.927E-05 -.113E-04 -.427E-05
   0.183E+00 0.105E+00 0.969E-03   -.280E+00 -.161E+00 -.792E-03   0.980E-01 0.567E-01 -.553E-03   -.243E-05 0.280E-06 0.289E-05
   0.186E+00 0.107E+00 -.137E-02   -.283E+00 -.163E+00 0.156E-02   0.982E-01 0.567E-01 -.530E-03   0.767E-05 0.584E-05 0.940E-06
   0.202E+00 0.116E+00 0.109E-02   -.299E+00 -.173E+00 -.912E-03   0.987E-01 0.571E-01 -.553E-03   0.908E-05 -.423E-05 0.456E-05
   0.202E+00 0.117E+00 0.110E-02   -.299E+00 -.173E+00 -.917E-03   0.988E-01 0.569E-01 -.552E-03   0.763E-05 0.181E-04 -.348E-05
   0.205E+00 0.118E+00 -.127E-02   -.302E+00 -.175E+00 0.145E-02   0.989E-01 0.571E-01 -.529E-03   0.356E-05 -.202E-05 0.173E-05
   0.201E+00 0.117E+00 0.108E-02   -.299E+00 -.173E+00 -.902E-03   0.988E-01 0.569E-01 -.553E-03   -.141E-05 -.399E-05 0.207E-05
   0.205E+00 0.118E+00 -.126E-02   -.302E+00 -.175E+00 0.145E-02   0.989E-01 0.571E-01 -.529E-03   -.358E-05 0.178E-04 0.430E-06
   0.183E+00 0.105E+00 0.963E-03   -.280E+00 -.161E+00 -.782E-03   0.980E-01 0.567E-01 -.553E-03   -.156E-04 0.704E-05 -.464E-06
   0.186E+00 0.107E+00 -.139E-02   -.283E+00 -.163E+00 0.157E-02   0.982E-01 0.567E-01 -.530E-03   -.137E-04 -.166E-04 -.403E-06
   0.183E+00 0.106E+00 0.970E-03   -.280E+00 -.162E+00 -.790E-03   0.980E-01 0.565E-01 -.553E-03   -.179E-04 -.176E-04 0.104E-05
   -.269E+00 -.155E+00 -.430E+03   0.114E+00 0.658E-01 0.432E+03   0.156E+00 0.902E-01 -.252E+01   0.118E-04 -.187E-04 0.414E-05
   -.286E+00 -.154E+00 0.430E+03   0.131E+00 0.644E-01 -.432E+03   0.156E+00 0.902E-01 0.252E+01   0.168E-04 0.126E-04 -.181E-04
   -.285E+00 -.155E+00 -.430E+03   0.130E+00 0.651E-01 0.432E+03   0.156E+00 0.901E-01 -.252E+01   0.186E-04 0.159E-04 0.173E-04
   -.325E+00 -.197E+00 -.430E+03   0.168E+00 0.107E+00 0.432E+03   0.158E+00 0.908E-01 -.252E+01   -.140E-04 -.243E-04 0.828E-05
   -.324E+00 -.198E+00 0.430E+03   0.167E+00 0.108E+00 -.432E+03   0.158E+00 0.908E-01 0.252E+01   -.119E-04 -.229E-04 -.947E-05
   -.276E+00 -.170E+00 -.430E+03   0.122E+00 0.804E-01 0.432E+03   0.156E+00 0.897E-01 -.252E+01   -.106E-04 0.144E-04 0.503E-05
   -.276E+00 -.171E+00 0.430E+03   0.121E+00 0.816E-01 -.432E+03   0.156E+00 0.896E-01 0.252E+01   -.103E-04 0.146E-04 -.159E-05
   -.271E+00 -.156E+00 0.430E+03   0.116E+00 0.668E-01 -.432E+03   0.156E+00 0.902E-01 0.252E+01   0.992E-05 -.177E-04 -.495E-05
   -.286E+00 -.154E+00 0.430E+03   0.131E+00 0.644E-01 -.432E+03   0.156E+00 0.902E-01 0.252E+01   0.319E-06 -.140E-04 0.851E-05
   -.285E+00 -.155E+00 -.430E+03   0.130E+00 0.651E-01 0.432E+03   0.156E+00 0.901E-01 -.252E+01   -.137E-05 -.163E-04 -.497E-05
   -.319E+00 -.184E+00 0.430E+03   0.162E+00 0.933E-01 -.432E+03   0.158E+00 0.914E-01 0.252E+01   -.162E-04 0.122E-05 -.112E-04
   -.317E+00 -.183E+00 -.430E+03   0.160E+00 0.922E-01 0.432E+03   0.158E+00 0.914E-01 -.252E+01   -.168E-04 0.235E-05 0.119E-04
   -.333E+00 -.183E+00 -.430E+03   0.176E+00 0.918E-01 0.432E+03   0.158E+00 0.912E-01 -.252E+01   -.154E-05 0.345E-05 -.123E-04
   -.334E+00 -.182E+00 0.430E+03   0.177E+00 0.911E-01 -.432E+03   0.158E+00 0.913E-01 0.252E+01   -.363E-05 0.356E-05 0.146E-04
   -.271E+00 -.156E+00 0.430E+03   0.116E+00 0.667E-01 -.432E+03   0.156E+00 0.902E-01 0.252E+01   -.134E-05 0.248E-05 0.198E-04
   -.269E+00 -.155E+00 -.430E+03   0.114E+00 0.658E-01 0.432E+03   0.156E+00 0.902E-01 -.252E+01   -.345E-05 0.481E-05 -.201E-04
   -.325E+00 -.197E+00 -.430E+03   0.168E+00 0.107E+00 0.432E+03   0.158E+00 0.908E-01 -.252E+01   0.962E-05 0.143E-04 -.973E-05
   -.276E+00 -.171E+00 0.430E+03   0.121E+00 0.816E-01 -.432E+03   0.156E+00 0.896E-01 0.252E+01   -.347E-05 0.887E-05 0.322E-05
   -.276E+00 -.170E+00 -.430E+03   0.122E+00 0.803E-01 0.432E+03   0.156E+00 0.897E-01 -.252E+01   -.196E-05 0.759E-05 -.462E-05
   -.325E+00 -.198E+00 0.430E+03   0.168E+00 0.108E+00 -.432E+03   0.158E+00 0.908E-01 0.252E+01   0.858E-05 0.116E-04 0.138E-04
   -.334E+00 -.182E+00 0.430E+03   0.177E+00 0.911E-01 -.432E+03   0.158E+00 0.913E-01 0.252E+01   0.653E-05 0.765E-05 0.194E-06
   -.333E+00 -.183E+00 -.430E+03   0.176E+00 0.918E-01 0.432E+03   0.158E+00 0.912E-01 -.252E+01   0.456E-05 0.702E-05 0.800E-07
   -.317E+00 -.183E+00 -.430E+03   0.160E+00 0.922E-01 0.432E+03   0.158E+00 0.914E-01 -.252E+01   0.634E-05 -.946E-05 0.114E-05
   -.319E+00 -.184E+00 0.430E+03   0.162E+00 0.933E-01 -.432E+03   0.158E+00 0.914E-01 0.252E+01   0.563E-05 -.711E-05 0.205E-05
   -.491E+01 -.284E+01 -.217E-02   0.564E-13 0.304E-13 -.114E-12   0.495E+01 0.286E+01 -.147E-01   0.209E-05 0.208E-05 0.211E-04

 POSITION                                       TOTAL-FORCE (eV/Angst)
      4.95844     12.44675      7.50682         0.000170      0.000026      0.000094
      3.29834      9.57153      7.50682         0.000010      0.000112      0.000093
      8.27842      6.69637      7.50682         0.000109      0.000138      0.000094
      6.61847      9.57158      7.50682         0.000268      0.000161      0.000120
     -1.68166      6.69633      7.50682         0.000010      0.000105      0.000093
     -0.02164      3.82109      7.50682         0.000092     -0.000034      0.000093
      1.63839      0.94592      7.50682         0.000185      0.000099      0.000120
      4.95836      6.69629      7.50682         0.000105     -0.000035      0.000093
      6.61839      3.82113      7.50682         0.000183      0.000099      0.000121
      3.29842      3.82117      7.50682         0.000120      0.000131      0.000095
      1.63847      6.69638      7.50682         0.000263      0.000165      0.000121
     -0.02156      9.57155      7.50682         0.000172      0.000034      0.000095
      4.95251      8.60974      9.17442         0.000050      0.000025      0.005016
      3.29233     11.48493      5.83922         0.000059      0.000153     -0.005257
      3.29238     11.48495      9.17443        -0.000088      0.000004      0.005133
      1.63220      8.60949      9.17447        -0.000313     -0.000239      0.005335
      1.63216      8.60945      5.83918        -0.000110     -0.000185     -0.005458
      6.61245      5.73443      9.17443        -0.000042     -0.000077      0.005134
      6.61241      5.73439      5.83922         0.000160     -0.000024     -0.005258
      4.95246      8.60971      5.83927         0.000238      0.000134     -0.005081
     -1.68767      8.60973      5.83922         0.000059      0.000153     -0.005257
     -1.68762      8.60974      9.17443        -0.000087      0.000004      0.005133
      4.95221      2.85916      5.83923        -0.000020     -0.000010     -0.005273
      4.95226      2.85919      9.17446        -0.000207     -0.000119      0.005213
      3.29213      5.73439      9.17447        -0.000361     -0.000157      0.005340
      3.29208      5.73438      5.83918        -0.000213     -0.000008     -0.005462
     -0.02754      5.73451      5.83927         0.000238      0.000134     -0.005080
     -0.02749      5.73454      9.17442         0.000051      0.000025      0.005016
      6.61220     11.48469      9.17447        -0.000312     -0.000238      0.005336
      1.63241      2.85919      5.83922         0.000160     -0.000024     -0.005263
      1.63245      2.85922      9.17443        -0.000042     -0.000076      0.005138
      6.61216     11.48466      5.83918        -0.000109     -0.000184     -0.005457
      8.27208      8.60959      5.83918        -0.000213     -0.000007     -0.005457
      8.27213      8.60960      9.17447        -0.000360     -0.000156      0.005336
      4.95226     14.36001      9.17446        -0.000206     -0.000118      0.005218
      4.95221     14.35998      5.83923        -0.000019     -0.000010     -0.005278
    total drift:                                0.035942      0.020752     -0.016820

  FREE ENERGIE OF THE ION-ELECTRON SYSTEM (eV)
  free  energy   TOTEN  =      -239.73605280 eV

  energy  without entropy=     -239.73605280  energy(sigma->0) =     -239.73605280

 stress matrix after NEB project (eV)
     -3.44202     -1.48060     -0.00496
     -1.48060     -1.73240     -0.00287
     -0.00496     -0.00287     -4.08227
  FORCES: max atom, RMS     0.005466    0.004291
  FORCE total and by dimension    0.025748    0.005462
  Stress total and by dimension    5.991502    4.082273
 writing wavefunctions

 Spin-Orbit-Coupling matrix elements

 Ion:    1  E_soc:     -0.0292454
 l=   1
     0.0000000    -0.0021317    -0.0019011
    -0.0021317     0.0000000    -0.0021069
    -0.0019011    -0.0021069     0.0000000
 l=   2
     0.0000000    -0.0004817     0.0000000    -0.0004746    -0.0026920
    -0.0004817     0.0000000    -0.0016741    -0.0004242    -0.0004888
     0.0000000    -0.0016741     0.0000000    -0.0017556     0.0000000
    -0.0004746    -0.0004242    -0.0017556     0.0000000    -0.0004920
    -0.0026920    -0.0004888     0.0000000    -0.0004920     0.0000000
 l=   3
     0.0000000     0.0000000     0.0000000     0.0000000     0.0000000     0.0000000     0.0000000
     0.0000000     0.0000000     0.0000000     0.0000000     0.0000000     0.0000000     0.0000000
     0.0000000     0.0000000     0.0000000     0.0000000     0.0000000     0.0000000     0.0000000
     0.0000000     0.0000000     0.0000000     0.0000000     0.0000000     0.0000000     0.0000000
     0.0000000     0.0000000     0.0000000     0.0000000     0.0000000     0.0000000     0.0000000
     0.0000000     0.0000000     0.0000000     0.0000000     0.0000000     0.0000000     0.0000000
     0.0000000     0.0000000     0.0000000     0.0000000     0.0000000     0.0000000     0.0000000

[...]

 Ion:   36  E_soc:     -0.0402923
 l=   1
     0.0000000    -0.0066480    -0.0068358
    -0.0066480     0.0000000    -0.0066629
    -0.0068358    -0.0066629     0.0000000
 l=   2
     0.0000000     0.0000005     0.0000000     0.0000002    -0.0000062
     0.0000005     0.0000000    -0.0000010     0.0000073     0.0000005
     0.0000000    -0.0000010     0.0000000    -0.0000010     0.0000000
     0.0000002     0.0000073    -0.0000010     0.0000000     0.0000004
    -0.0000062     0.0000005     0.0000000     0.0000004     0.0000000
 l=   3
     0.0000000     0.0000000     0.0000000     0.0000000     0.0000000     0.0000000     0.0000000
     0.0000000     0.0000000     0.0000000     0.0000000     0.0000000     0.0000000     0.0000000
     0.0000000     0.0000000     0.0000000     0.0000000     0.0000000     0.0000000     0.0000000
     0.0000000     0.0000000     0.0000000     0.0000000     0.0000000     0.0000000     0.0000000
     0.0000000     0.0000000     0.0000000     0.0000000     0.0000000     0.0000000     0.0000000
     0.0000000     0.0000000     0.0000000     0.0000000     0.0000000     0.0000000     0.0000000
     0.0000000     0.0000000     0.0000000     0.0000000     0.0000000     0.0000000     0.0000000

 total charge

[...]

 magnetization (x)

[...]

 magnetization (y)

[...]

 magnetization (z)

# of ion       s       p       d       tot
    1       -0.000  -0.000  -0.000  -0.000
    2       -0.000  -0.000  -0.000  -0.000
    3       -0.000  -0.000  -0.000  -0.000
    4       -0.000  -0.000  -0.000  -0.000
    5       -0.000  -0.000  -0.000  -0.000
    6       -0.000  -0.000  -0.000  -0.000
    7       -0.000  -0.000  -0.000  -0.000
    8       -0.000  -0.000  -0.000  -0.000
    9       -0.000  -0.000  -0.000  -0.000
   10       -0.000  -0.000  -0.000  -0.000
   11       -0.000  -0.000  -0.000  -0.000
   12       -0.000  -0.000  -0.000  -0.000
   13       -0.000  -0.000  -0.000  -0.000
   14       -0.000   0.000  -0.000  -0.000
   15       -0.000  -0.000  -0.000  -0.000
   16       -0.000  -0.000   0.000  -0.000
   17       -0.000  -0.000  -0.000  -0.000
   18       -0.000  -0.000   0.000  -0.000
   19        0.000   0.000  -0.000   0.000
   20       -0.000  -0.000  -0.000  -0.000
   21       -0.000  -0.000  -0.000  -0.000
   22       -0.000  -0.000  -0.000  -0.000
   23       -0.000  -0.000  -0.000  -0.000
   24       -0.000  -0.000   0.000  -0.000
   25       -0.000  -0.000   0.000  -0.000
   26       -0.000  -0.000  -0.000  -0.000
   27       -0.000  -0.000  -0.000  -0.000
   28       -0.000  -0.000  -0.000  -0.000
   29       -0.000  -0.000  -0.000  -0.000
   30       -0.000   0.000  -0.000   0.000
   31       -0.000  -0.000  -0.000  -0.000
   32       -0.000  -0.000  -0.000  -0.000
   33        0.000  -0.000  -0.000  -0.000
   34       -0.000  -0.000  -0.000  -0.000
   35       -0.000  -0.000  -0.000  -0.000
   36        0.000   0.000  -0.000   0.000
tot         -0.000  -0.000  -0.000  -0.000