 vasp.6.3.0 20Jan22 (build Oct 03 2022 14:36:10) gamma-only

 executed on             LinuxIFC date 2024.07.30  16:28:01

 INCAR:
   SYSTEM = MoSe2
   PREC = Normal
   ISPIN = 1
   ISTART = 0
   ICHARG = 2
   NPAR = 8
   ISMEAR = 0
   SIGMA = 0.1
   ALGO = Normal
   NELMIN = 4
   NELM = 200
   EDIFF = 1E-6
   EDIFFG = -0.001
   ISYM = 0
   IBRION = 1
   ISIF = 2
   NSW = 500
   POTIM = 0.5
   NWRITE = 1
   LWAVE = .FALSE.
   LCHARG = .FALSE.

 POTCAR:    PAW_PBE Mo 08Apr2002
 POTCAR:    PAW_PBE Se 06Sep2000
 POTCAR:    PAW_PBE Mo 08Apr2002

 POTCAR:    PAW_PBE Se 06Sep2000

  PAW_PBE Mo 08Apr2002                  :
  PAW_PBE Se 06Sep2000                  :

 POSCAR: Mo Se
  positions in direct lattice
 exchange correlation table for  LEXCH =        8
   RHO(1)=    0.500       N(1)  =     2000
   RHO(2)=  100.500       N(2)  =     4000

 VTST: version 4.2, (08/11/21)

 CHAIN: initializing optimizer

 OPT: Using VASP QUASI-newton optimizer
 CHAIN: Read ICHAIN            0

 POSCAR: Mo Se
  positions in direct lattice

 ion  position               nearest neighbor table
   1  0.914  0.833  0.500-  15 2.54  36 2.54  32 2.54  35 2.54  29 2.54  14 2.54   4 3.32   5 3.32
                             2 3.32   9 3.32   7 3.32   3 3.32
   2  0.664  0.667  0.500-  16 2.54  14 2.54  20 2.54  15 2.54  13 2.54  17 2.54   4 3.32  12 3.32
                            11 3.32   1 3.32   8 3.32   9 3.32
   3  0.914  0.167  0.500-  18 2.54  33 2.54  36 2.54  34 2.54  35 2.54  19 2.54   7 3.32   8 3.32
                             6 3.32   9 3.32   1 3.32   4 3.32
   4  0.914  0.500  0.500-  13 2.54  32 2.54  33 2.54  29 2.54  34 2.54  20 2.54   1 3.32   2 3.32
                             5 3.32   6 3.32   3 3.32   8 3.32
   5  0.164  0.667  0.500-  29 2.54  21 2.54  27 2.54  22 2.54  28 2.54  32 2.54   1 3.32  11 3.32
                             4 3.32  12 3.32   6 3.32   7 3.32
   6  0.164  0.333  0.500-  34 2.54  27 2.54  30 2.54  28 2.54  31 2.54  33 2.54   7 3.32  10 3.32
                             3 3.32   4 3.32   5 3.32  11 3.32
   7  0.164  0.000  0.500-  35 2.54  30 2.54  21 2.54  31 2.54  22 2.54  36 2.54   6 3.32   3 3.32
                            10 3.32  12 3.32   5 3.32   1 3.32
   8  0.664  0.333  0.500-  25 2.54  20 2.54  19 2.54  13 2.54  18 2.54  26 2.54   9 3.32   3 3.32
                            10 3.32  11 3.32   4 3.32   2 3.32
   9  0.664  0.000  0.500-  24 2.54  19 2.54  14 2.54  18 2.54  15 2.54  23 2.54   8 3.32  10 3.32
                             3 3.32   1 3.32   2 3.32  12 3.32
  10  0.414  0.167  0.500-  31 2.54  26 2.54  23 2.54  25 2.54  24 2.54  30 2.54   6 3.32   9 3.32
                             8 3.32   7 3.32  11 3.32  12 3.32
  11  0.414  0.500  0.500-  28 2.54  17 2.54  26 2.54  16 2.54  25 2.54  27 2.54  12 3.32   5 3.32
                             2 3.32   8 3.32  10 3.32   6 3.32
  12  0.414  0.833  0.500-  22 2.54  23 2.54  17 2.54  24 2.54  16 2.54  21 2.54  11 3.32   2 3.32
                             5 3.32   7 3.32  10 3.32   9 3.32
  13  0.747  0.500  0.612-   4 2.54   8 2.54   2 2.54
  14  0.747  0.833  0.389-   2 2.54   9 2.54   1 2.54
  15  0.747  0.833  0.612-   1 2.54   2 2.54   9 2.54
  16  0.497  0.667  0.612-   2 2.54  11 2.54  12 2.54
  17  0.497  0.667  0.389-  11 2.54  12 2.54   2 2.54
  18  0.747  0.167  0.612-   3 2.54   9 2.54   8 2.54
  19  0.747  0.167  0.389-   9 2.54   8 2.54   3 2.54
  20  0.747  0.500  0.389-   8 2.54   2 2.54   4 2.54
  21  0.247  0.833  0.389-   5 2.54   7 2.54  12 2.54
  22  0.247  0.833  0.612-  12 2.54   5 2.54   7 2.54
  23  0.497  1.000  0.389-  12 2.54  10 2.54   9 2.54
  24  0.497  1.000  0.612-   9 2.54  12 2.54  10 2.54
  25  0.497  0.333  0.612-   8 2.54  10 2.54  11 2.54
  26  0.497  0.333  0.389-  10 2.54  11 2.54   8 2.54
  27  0.247  0.500  0.389-   6 2.54   5 2.54  11 2.54
  28  0.247  0.500  0.612-  11 2.54   6 2.54   5 2.54
  29  0.997  0.667  0.612-   5 2.54   4 2.54   1 2.54
  30  0.247  0.167  0.389-   7 2.54   6 2.54  10 2.54
  31  0.247  0.167  0.612-  10 2.54   7 2.54   6 2.54
  32  0.997  0.667  0.389-   4 2.54   1 2.54   5 2.54
  33  0.997  0.333  0.389-   3 2.54   4 2.54   6 2.54
  34  0.997  0.333  0.612-   6 2.54   3 2.54   4 2.54
  35  0.997  1.000  0.612-   7 2.54   1 2.54   3 2.54
  36  0.997  1.000  0.389-   1 2.54   3 2.54   7 2.54

IMPORTANT INFORMATION: All symmetrisations will be switched off!
NOSYMM: (Re-)initialisation of all symmetry stuff for point group C_1.

                                     Primitive cell

  volume of cell :    1718.2221

  direct lattice vectors                    reciprocal lattice vectors
     9.960000000  5.750408681  0.000000000     0.075301205  0.043475171  0.000000000
    -4.980000000  8.625613022  0.000000000    -0.050200803  0.086950342  0.000000000
     0.000000000  0.000000000 15.000000000     0.000000000  0.000000000  0.066666667

  length of vectors
    11.500817362  9.960000000 15.000000000     0.086950342  0.100401606  0.066666667

  position of ions in fractional coordinates (direct lattice)
     0.914090118  0.833334316  0.500455147
     0.664090118  0.666667649  0.500455147
     0.914090118  0.166667649  0.500455147
     0.914090118  0.500000983  0.500455147
     0.164090118  0.666667649  0.500455147
     0.164090118  0.333334316  0.500455147
     0.164090118  0.000000983  0.500455147
     0.664090118  0.333334316  0.500455147
     0.664090118  0.000000983  0.500455147
     0.414090118  0.166667649  0.500455147
     0.414090118  0.500000983  0.500455147
     0.414090118  0.833334316  0.500455147
     0.747428192  0.499999512  0.611690486
     0.747417588  0.833332839  0.389220100
     0.747428192  0.833332845  0.611690486
     0.497428192  0.666666179  0.611690486
     0.497417588  0.666666172  0.389220100
     0.747428192  0.166666179  0.611690486
     0.747417588  0.166666172  0.389220100
     0.747417588  0.499999505  0.389220100
     0.247417588  0.833332839  0.389220100
     0.247428192  0.833332845  0.611690486
     0.497417588  0.999999505  0.389220100
     0.497428192  0.999999512  0.611690486
     0.497428192  0.333332845  0.611690486
     0.497417588  0.333332839  0.389220100
     0.247417588  0.499999505  0.389220100
     0.247428192  0.499999512  0.611690486
     0.997428192  0.666666179  0.611690486
     0.247417588  0.166666172  0.389220100
     0.247428192  0.166666179  0.611690486
     0.997417588  0.666666172  0.389220100
     0.997417588  0.333332839  0.389220100
     0.997428192  0.333332845  0.611690486
     0.997428192  0.999999512  0.611690486
     0.997417588  0.999999505  0.389220100

  ion indices of the primitive-cell ions
   primitive index   ion index
                 1           1
                 2           2
                 3           3
                 4           4
                 5           5
                 6           6
                 7           7
                 8           8
                 9           9
                10          10
                11          11
                12          12
                13          13
                14          14
                15          15
                16          16
                17          17
                18          18
                19          19
                20          20
                21          21
                22          22
                23          23
                24          24
                25          25
                26          26
                27          27
                28          28
                29          29
                30          30
                31          31
                32          32
                33          33
                34          34
                35          35
                36          36

 KPOINTS: Automatic mesh

Automatic generation of k-mesh.
 Grid dimensions read from file:
 generate k-points for:    1    1    1

 Generating k-lattice:

  Cartesian coordinates                     Fractional coordinates (reciprocal lattice)
     0.075301205  0.043475171  0.000000000     1.000000000  0.000000000  0.000000000
    -0.050200803  0.086950342  0.000000000    -0.000000000  1.000000000  0.000000000
     0.000000000  0.000000000  0.066666667     0.000000000  0.000000000  1.000000000

  Length of vectors
     0.086950342  0.100401606  0.066666667

  Shift w.r.t. Gamma in fractional coordinates (k-lattice)
     0.000000000  0.000000000  0.000000000

 Subroutine IBZKPT returns following result:

 Found      1 irreducible k-points:

 Following reciprocal coordinates:
            Coordinates               Weight
  0.000000  0.000000  0.000000      1.000000

 Following cartesian coordinates:
            Coordinates               Weight
  0.000000  0.000000  0.000000      1.000000

 SYSTEM =  MoSe2
 POSCAR =  Mo Se

 Startparameter for this run:
   NWRITE =      1    write-flag & timer
   PREC   = normal    normal or accurate (medium, high low for compatibility)
   ISTART =      0    job   : 0-new  1-cont  2-samecut
   ICHARG =      2    charge: 1-file 2-atom 10-const
   ISPIN  =      1    spin polarized calculation?
   LNONCOLLINEAR =      F non collinear calculations
   LSORBIT =      F    spin-orbit coupling
   INIWAV =      1    electr: 0-lowe 1-rand  2-diag
   LASPH  =      F    aspherical Exc in radial PAW
 Electronic Relaxation 1
   ENCUT  =  224.6 eV  16.51 Ry    4.06 a.u.  14.05 12.17 18.33*2*pi/ulx,y,z
   ENINI  =  224.6     initial cutoff
   ENAUG  =  446.8 eV  augmentation charge cutoff
   NELM   =    200;   NELMIN=  4; NELMDL= -5     # of ELM steps
   EDIFF  = 0.1E-05   stopping-criterion for ELM
   LREAL  =      F    real-space projection
   NLSPLINE    = F    spline interpolate recip. space projectors
   LCOMPAT=      F    compatible to vasp.4.4
   GGA_COMPAT  = T    GGA compatible to vasp.4.4-vasp.4.6
   LMAXPAW     = -100 max onsite density
   LMAXMIX     =    2 max onsite mixed and CHGCAR
   VOSKOWN=      0    Vosko Wilk Nusair interpolation
   ROPT   =    0.00000   0.00000
 Ionic relaxation
   EDIFFG = -.1E-02   stopping-criterion for IOM
   NSW    =    500    number of steps for IOM
   NBLOCK =      1;   KBLOCK =    500    inner block; outer block
   IBRION =      1    ionic relax: 0-MD 1-quasi-New 2-CG
   NFREE  =      0    steps in history (QN), initial steepest desc. (CG)
   ISIF   =      2    stress and relaxation
   IWAVPR =     11    prediction:  0-non 1-charg 2-wave 3-comb
   ISYM   =      0    0-nonsym 1-usesym 2-fastsym
   LCORR  =      T    Harris-Foulkes like correction to forces

   POTIM  = 0.5000    time-step for ionic-motion
   TEIN   =    0.0    initial temperature
   TEBEG  =    0.0;   TEEND  =   0.0 temperature during run
   SMASS  =  -3.00    Nose mass-parameter (am)
   estimated Nose-frequenzy (Omega)   =  0.10E-29 period in steps = 0.13E+47 mass=  -0.302E-26a.u.
   SCALEE = 1.0000    scale energy and forces
   NPACO  =    256;   APACO  = 10.0  distance and # of slots for P.C.
   PSTRESS=    0.0 pullay stress

  Mass of Ions in am
   POMASS =  95.94 78.96
  Ionic Valenz
   ZVAL   =   6.00  6.00
  Atomic Wigner-Seitz radii
  virtual crystal weights
   VCA    =   1.00  1.00
[...]
      4.95439     14.36123      9.17536        -0.052328     -0.030062     -0.015477
      4.95428     14.36117      5.83830        -0.051699     -0.029699      0.016031
    total drift:                                0.034186      0.019743     -0.018164

  FREE ENERGIE OF THE ION-ELECTRON SYSTEM (eV)
  free  energy   TOTEN  =      -239.07361094 eV

  energy  without entropy=     -239.07361094  energy(sigma->0) =     -239.07361094

 stress matrix after NEB project (eV)
     -3.44515     -1.02136     -0.01460
     -1.02136     -2.26279     -0.00845
     -0.01460     -0.00845     -4.90990
  FORCES: max atom, RMS     0.119286    0.084296
  FORCE total and by dimension    0.505777    0.103433
  Stress total and by dimension    6.571402    4.909902
 Quasi-Newton relaxation of ions (Broydens 2nd method)
  g(Force)  = 0.123E-01   g(Stress)= 0.000E+00

 Reset! Starting new Quasi-Newton update for ions

[...]

  free energy =  -0.239077045963E+03  energy without entropy=  -0.239077045963E+03

[...]

 d Force = 0.4918233E-02[-0.250E-02, 0.123E-01]  d Energy = 0.4942114E-02-0.239E-04
 d Force =-0.7843695E+01[-0.787E+01,-0.782E+01]  d Ewald  =-0.7843743E+01 0.482E-04

[...]

 retain information from N=  1 steps
 eigenvalues of (default step * inverse Hessian matrix)
  average eigenvalue of G=   0.8277
 eigenvalue spectrum of G is  0.8277

[...]

 eigenvalue-minimisations  :   312
 total energy-change (2. order) : 0.3608608E-05  (-0.1467393E-05)
 number of electron     216.0000387 magnetization
 augmentation part      -13.3598000 magnetization

[...]

 d Force = 0.2279446E-03[-0.752E-07, 0.456E-03]  d Energy = 0.2302925E-03-0.235E-05
 d Force =-0.1058498E+01[-0.106E+01,-0.106E+01]  d Ewald  =-0.1058497E+01-0.405E-06

[...]

 eigenvalues of (default mixing * dielectric matrix)
  average eigenvalue GAMMA=   1.2698
  0.8627  1.6768

[...]

--------------------------------------- Iteration      4(   4)  ---------------------------------------

 eigenvalue-minimisations  :   160
 total energy-change (2. order) :-0.2704292E-06  (-0.3283284E-07)
 number of electron     216.0000387 magnetization
 augmentation part      -13.3598635 magnetization

  free energy =  -0.239078785818E+03  energy without entropy=  -0.239078785818E+03

 average (electrostatic) potential at core
  the test charge radii are     1.2296  1.0808
  (the norm of the test charge is              1.0000)
       1 -44.5347       2 -44.5351       3 -44.5347       4 -44.5344       5 -44.5351
       6 -44.5351       7 -44.5348       8 -44.5351       9 -44.5348      10 -44.5347
      11 -44.5344      12 -44.5347      13 -59.2452      14 -59.2452      15 -59.2452
      16 -59.2454      17 -59.2454      18 -59.2452      19 -59.2452      20 -59.2452
      21 -59.2452      22 -59.2452      23 -59.2453      24 -59.2453      25 -59.2454
      26 -59.2454      27 -59.2452      28 -59.2452      29 -59.2454      30 -59.2452
      31 -59.2452      32 -59.2454      33 -59.2454      34 -59.2454      35 -59.2453
      36 -59.2453

 E-fermi :  -0.6220     XC(G=0):  -5.2264     alpha+bet : -4.5538

 Fermi energy:        -0.6220182673

 k-point     1 :       0.0000    0.0000    0.0000
  band No.  band energies     occupation
      1     -15.3044      2.00000
      2     -14.5781      2.00000
      3     -14.5773      2.00000
      4     -14.3688      2.00000
      5     -14.3685      2.00000
      6     -14.3663      2.00000
      7     -13.9305      2.00000
      8     -13.9299      2.00000
      9     -13.8978      2.00000
     10     -13.8977      2.00000
     11     -13.8974      2.00000
     12     -13.8972      2.00000
     13     -13.8085      2.00000
     14     -13.8084      2.00000
     15     -13.6249      2.00000
     16     -13.5373      2.00000
     17     -13.5373      2.00000
     18     -13.5369      2.00000
     19     -13.5368      2.00000
     20     -13.3840      2.00000
     21     -13.3832      2.00000
     22     -13.3832      2.00000
     23     -13.2189      2.00000
     24     -13.2189      2.00000
     25      -6.7278      2.00000
     26      -6.4863      2.00000
     27      -6.2216      2.00000
     28      -6.2215      2.00000
     29      -6.2214      2.00000
     30      -6.2213      2.00000
     31      -6.1120      2.00000
     32      -6.1120      2.00000
     33      -5.8607      2.00000
     34      -5.7612      2.00000
     35      -5.7607      2.00000
     36      -5.6684      2.00000
     37      -5.6682      2.00000
     38      -5.6132      2.00000
     39      -5.6124      2.00000
     40      -5.4324      2.00000
     41      -5.4324      2.00000
     42      -5.4319      2.00000
     43      -5.4319      2.00000
     44      -5.0799      2.00000
     45      -5.0799      2.00000
     46      -4.9290      2.00000
     47      -4.8869      2.00000
     48      -4.8868      2.00000
     49      -4.8866      2.00000
     50      -4.8864      2.00000
     51      -4.8478      2.00000
     52      -4.8478      2.00000
     53      -4.7668      2.00000
     54      -4.7664      2.00000
     55      -4.5215      2.00000
     56      -4.5215      2.00000
     57      -4.5177      2.00000
     58      -4.5174      2.00000
     59      -4.4412      2.00000
     60      -4.4401      2.00000
[...]
    122       0.9709      0.00000
    123       0.9709      0.00000
    124       1.0439      0.00000
    125       1.0441      0.00000
    126       1.0949      0.00000
    127       1.0960      0.00000
    128       1.1032      0.00000
    129       1.1270      0.00000
    130       1.1271      0.00000
    131       1.3380      0.00000
    132       1.3387      0.00000
    133       1.4263      0.00000
    134       1.4263      0.00000
    135       1.6740      0.00000
    136       1.7418      0.00000

 soft charge-density along one line, spin component           1
         0         1         2         3         4         5         6         7         8         9
 total charge-density along one line

------------------------ aborting loop because EDIFF is reached ----------------------------------------

  FORCE on cell =-STRESS in cart. coord.  units (eV):
  Direction    XX          YY          ZZ          XY          YZ          ZX
  Alpha Z   347.93247   347.93247   347.93247
  Ewald   17696.22421 17704.96813-24203.96077    -7.57274    -0.01031    -0.01784
  Hartree 19328.36701 19330.76362-18971.14033    -2.07559    -0.00114    -0.00198
  E(xc)    -869.40677  -870.43160  -878.45452     0.88753     0.00035     0.00060
  Local  -39903.50928-39917.14071 40256.61991    11.80549     0.01070     0.01853
  n-local   755.30917   754.68148   824.97603     0.54357    -0.00177    -0.00307
  augment    14.20596    15.23025     0.69413    -0.88706     0.00105     0.00183
  Kinetic  2627.32482  2632.14111  2619.03477    -4.17101    -0.00174    -0.00301
  Fock        0.00000     0.00000     0.00000     0.00000     0.00000     0.00000
  Total      -3.55242    -1.85526    -4.29831    -1.46980    -0.00286    -0.00494
  in kB      -3.31249    -1.72996    -4.00801    -1.37053    -0.00266    -0.00461

 VOLUME and BASIS-vectors are now :
  energy-cutoff  :      224.58
  volume of cell :     1718.22
      direct lattice vectors                 reciprocal lattice vectors
     9.960000000  5.750408681  0.000000000     0.075301205  0.043475171  0.000000000
    -4.980000000  8.625613022  0.000000000    -0.050200803  0.086950342  0.000000000
     0.000000000  0.000000000 15.000000000     0.000000000  0.000000000  0.066666667

  length of vectors
    11.500817362  9.960000000 15.000000000     0.086950342  0.100401606  0.066666667

 FORCES acting on ions
    electron-ion (+dipol)            ewald-force                    non-local-force                 convergence-correction
   0.183E+00 0.106E+00 0.100E-02   -.280E+00 -.162E+00 -.790E-03   0.980E-01 0.565E-01 -.545E-03   -.344E-04 0.753E-05 -.327E-04
   0.202E+00 0.116E+00 0.112E-02   -.299E+00 -.173E+00 -.915E-03   0.987E-01 0.571E-01 -.546E-03   -.446E-04 0.124E-03 -.328E-04
   0.183E+00 0.105E+00 0.100E-02   -.280E+00 -.161E+00 -.792E-03   0.980E-01 0.567E-01 -.545E-03   0.357E-05 -.455E-04 -.327E-04
   0.186E+00 0.107E+00 -.134E-02   -.283E+00 -.163E+00 0.156E-02   0.982E-01 0.567E-01 -.522E-03   0.569E-04 0.509E-04 -.278E-04
   0.202E+00 0.116E+00 0.112E-02   -.299E+00 -.173E+00 -.912E-03   0.987E-01 0.571E-01 -.546E-03   -.594E-05 0.671E-04 -.329E-04
   0.201E+00 0.117E+00 0.113E-02   -.299E+00 -.173E+00 -.917E-03   0.988E-01 0.569E-01 -.546E-03   0.118E-04 -.274E-04 -.329E-04
   0.204E+00 0.118E+00 -.124E-02   -.302E+00 -.175E+00 0.145E-02   0.989E-01 0.571E-01 -.523E-03   0.791E-04 0.793E-05 -.282E-04
   0.201E+00 0.117E+00 0.111E-02   -.299E+00 -.173E+00 -.902E-03   0.988E-01 0.569E-01 -.546E-03   0.929E-04 -.522E-04 -.329E-04
   0.204E+00 0.118E+00 -.124E-02   -.302E+00 -.175E+00 0.145E-02   0.989E-01 0.571E-01 -.522E-03   0.728E-04 -.341E-05 -.282E-04
   0.183E+00 0.105E+00 0.994E-03   -.280E+00 -.161E+00 -.782E-03   0.980E-01 0.567E-01 -.545E-03   0.514E-04 -.669E-04 -.327E-04
   0.186E+00 0.107E+00 -.136E-02   -.283E+00 -.163E+00 0.157E-02   0.982E-01 0.567E-01 -.522E-03   -.235E-04 0.487E-04 -.278E-04
   0.183E+00 0.106E+00 0.100E-02   -.280E+00 -.162E+00 -.790E-03   0.980E-01 0.565E-01 -.545E-03   -.286E-06 0.321E-04 -.328E-04
   -.270E+00 -.156E+00 -.430E+03   0.114E+00 0.658E-01 0.432E+03   0.156E+00 0.903E-01 -.252E+01   0.123E-02 0.760E-03 0.193E-03
   -.286E+00 -.155E+00 0.430E+03   0.131E+00 0.644E-01 -.432E+03   0.156E+00 0.902E-01 0.252E+01   -.907E-04 0.758E-03 -.818E-04
   -.285E+00 -.155E+00 -.430E+03   0.130E+00 0.651E-01 0.432E+03   0.156E+00 0.901E-01 -.252E+01   -.762E-04 0.771E-03 0.699E-04
   -.324E+00 -.196E+00 -.430E+03   0.168E+00 0.107E+00 0.432E+03   0.158E+00 0.909E-01 -.252E+01   -.642E-03 -.975E-03 -.344E-03
   -.324E+00 -.197E+00 0.430E+03   0.167E+00 0.108E+00 -.432E+03   0.158E+00 0.909E-01 0.252E+01   -.661E-03 -.982E-03 0.332E-03
   -.277E+00 -.169E+00 -.430E+03   0.122E+00 0.804E-01 0.432E+03   0.156E+00 0.897E-01 -.252E+01   0.692E-03 -.463E-03 0.960E-04
   -.277E+00 -.170E+00 0.430E+03   0.121E+00 0.816E-01 -.432E+03   0.156E+00 0.897E-01 0.252E+01   0.674E-03 -.469E-03 -.108E-03
   -.272E+00 -.157E+00 0.430E+03   0.116E+00 0.668E-01 -.432E+03   0.156E+00 0.903E-01 0.252E+01   0.122E-02 0.751E-03 -.214E-03
   -.286E+00 -.155E+00 0.430E+03   0.131E+00 0.644E-01 -.432E+03   0.156E+00 0.902E-01 0.252E+01   0.146E-05 0.715E-03 -.869E-04
   -.285E+00 -.155E+00 -.430E+03   0.130E+00 0.651E-01 0.432E+03   0.156E+00 0.901E-01 -.252E+01   0.159E-04 0.728E-03 0.750E-04
   -.319E+00 -.184E+00 0.430E+03   0.162E+00 0.933E-01 -.432E+03   0.158E+00 0.914E-01 0.252E+01   0.720E-04 -.145E-04 0.412E-03
   -.317E+00 -.183E+00 -.430E+03   0.160E+00 0.922E-01 0.432E+03   0.158E+00 0.914E-01 -.252E+01   0.869E-04 -.576E-05 -.434E-03
   -.332E+00 -.183E+00 -.430E+03   0.176E+00 0.918E-01 0.432E+03   0.158E+00 0.913E-01 -.252E+01   -.120E-02 -.333E-04 -.272E-03
   -.333E+00 -.182E+00 0.430E+03   0.177E+00 0.911E-01 -.432E+03   0.158E+00 0.914E-01 0.252E+01   -.122E-02 -.462E-04 0.260E-03
   -.272E+00 -.157E+00 0.430E+03   0.116E+00 0.667E-01 -.432E+03   0.156E+00 0.903E-01 0.252E+01   0.115E-02 0.718E-03 -.185E-03
   -.270E+00 -.156E+00 -.430E+03   0.114E+00 0.658E-01 0.432E+03   0.156E+00 0.903E-01 -.252E+01   0.117E-02 0.727E-03 0.164E-03
   -.324E+00 -.196E+00 -.430E+03   0.168E+00 0.107E+00 0.432E+03   0.158E+00 0.909E-01 -.252E+01   -.571E-03 -.103E-02 -.360E-03
   -.277E+00 -.170E+00 0.430E+03   0.121E+00 0.816E-01 -.432E+03   0.156E+00 0.897E-01 0.252E+01   0.624E-03 -.408E-03 -.149E-03
   -.277E+00 -.169E+00 -.430E+03   0.122E+00 0.803E-01 0.432E+03   0.156E+00 0.897E-01 -.252E+01   0.643E-03 -.402E-03 0.138E-03
   -.324E+00 -.197E+00 0.430E+03   0.168E+00 0.108E+00 -.432E+03   0.158E+00 0.909E-01 0.252E+01   -.590E-03 -.104E-02 0.348E-03
   -.333E+00 -.182E+00 0.430E+03   0.177E+00 0.911E-01 -.432E+03   0.158E+00 0.914E-01 0.252E+01   -.122E-02 -.164E-04 0.330E-03
   -.332E+00 -.183E+00 -.430E+03   0.176E+00 0.918E-01 0.432E+03   0.158E+00 0.913E-01 -.252E+01   -.121E-02 -.356E-05 -.343E-03
   -.317E+00 -.183E+00 -.430E+03   0.160E+00 0.922E-01 0.432E+03   0.158E+00 0.914E-01 -.252E+01   0.136E-05 0.792E-05 -.374E-03
   -.319E+00 -.184E+00 0.430E+03   0.162E+00 0.933E-01 -.432E+03   0.158E+00 0.914E-01 0.252E+01   -.136E-04 -.785E-06 0.352E-03
   -.491E+01 -.284E+01 -.165E-02   -.893E-13 0.905E-14 0.398E-12   0.495E+01 0.286E+01 -.147E-01   0.355E-03 0.196E-03 -.558E-03

 POSITION                                       TOTAL-FORCE (eV/Angst)
      4.95844     12.44675      7.50682        -0.000050     -0.000092      0.000105
      3.29834      9.57153      7.50682        -0.000175     -0.000002      0.000101
      8.27842      6.69637      7.50682        -0.000105      0.000007      0.000104
      6.61847      9.57158      7.50682         0.000058      0.000039      0.000131
     -1.68166      6.69633      7.50682        -0.000177     -0.000007      0.000101
     -0.02164      3.82109      7.50682        -0.000096     -0.000142      0.000102
      1.63839      0.94592      7.50682        -0.000001     -0.000006      0.000130
      4.95836      6.69629      7.50682        -0.000089     -0.000142      0.000102
      6.61839      3.82113      7.50682        -0.000002     -0.000005      0.000130
      3.29842      3.82117      7.50682        -0.000097      0.000003      0.000105
      1.63847      6.69638      7.50682         0.000055      0.000042      0.000131
     -0.02156      9.57155      7.50682        -0.000049     -0.000088      0.000105
      4.95251      8.60974      9.17442         0.000098      0.000052     -0.000472
      3.29233     11.48493      5.83922         0.000143      0.000174      0.000242
      3.29238     11.48495      9.17443         0.000003      0.000030     -0.000375
      1.63220      8.60949      9.17447        -0.000175     -0.000129     -0.000161
      1.63216      8.60945      5.83918         0.000021     -0.000079      0.000030
      6.61245      5.73443      9.17443         0.000024     -0.000011     -0.000373
      6.61241      5.73439      5.83922         0.000220      0.000039      0.000240
      4.95246      8.60971      5.83927         0.000281      0.000157      0.000397
     -1.68767      8.60973      5.83922         0.000142      0.000173      0.000240
     -1.68762      8.60974      9.17443         0.000002      0.000029     -0.000374
     -0.02779     11.48478      5.83923         0.000089      0.000052      0.000196
     -0.02774     11.48480      9.17446        -0.000093     -0.000053     -0.000266
      3.29213      5.73439      9.17447        -0.000195     -0.000091     -0.000158
      3.29208      5.73438      5.83918        -0.000054      0.000054      0.000027
     -0.02754      5.73451      5.83927         0.000281      0.000158      0.000398
     -0.02749      5.73454      9.17442         0.000099      0.000053     -0.000473
      6.61220     11.48469      9.17447        -0.000174     -0.000127     -0.000162
      1.63241      2.85919      5.83922         0.000219      0.000038      0.000236
      1.63245      2.85922      9.17443         0.000024     -0.000011     -0.000369
      6.61216     11.48466      5.83918         0.000022     -0.000077      0.000031
      8.27208      8.60959      5.83918        -0.000053      0.000055      0.000031
      8.27213      8.60960      9.17447        -0.000195     -0.000090     -0.000161
      4.95226     14.36001      9.17446        -0.000092     -0.000053     -0.000263
      4.95221     14.35998      5.83923         0.000091      0.000052      0.000193
    total drift:                                0.035911      0.020733     -0.016940

  FREE ENERGIE OF THE ION-ELECTRON SYSTEM (eV)
  free  energy   TOTEN  =      -239.07878582 eV

  energy  without entropy=     -239.07878582  energy(sigma->0) =     -239.07878582

 d Force = 0.1222546E-05[ 0.432E-06, 0.201E-05]  d Energy = 0.2473478E-05-0.125E-05
 d Force =-0.5960702E+00[-0.596E+00,-0.596E+00]  d Ewald  =-0.5960702E+00 0.187E-09

 stress matrix after NEB project (eV)
     -3.55242     -1.46980     -0.00494
     -1.46980     -1.85526     -0.00286
     -0.00494     -0.00286     -4.29831
  FORCES: max atom, RMS     0.000512    0.000283
  FORCE total and by dimension    0.001698    0.000473
  Stress total and by dimension    6.233602    4.298312
 Quasi-Newton relaxation of ions (Broydens 2nd method)
  g(Force)  = 0.139E-06   g(Stress)= 0.000E+00

 retain information from N=  2 steps
 eigenvalues of (default step * inverse Hessian matrix)
  average eigenvalue of G=   1.0206
 eigenvalue spectrum of G is  0.8403  1.2008

 reached required accuracy - stopping structural energy minimisation