 vasp.6.3.0 20Jan22 (build Oct 03 2022 14:51:58) complex

 executed on             LinuxIFC date 2024.07.09  14:37:52

 INCAR:
   SYSTEM = MoSe2
   PREC = Accurate
   ISPIN = 1
   ISTART = 0
   ICHARG = 11
   NPAR = 8
   ISMEAR = 0
   SIGMA = 0.1
   ALGO = Normal
   NELMIN = 4
   NELM = 200
   EDIFF = 1E-6
   IBRION = -1
   NWRITE = 1
   LORBIT = 11
   LWAVE = .TRUE.
   LCHARG = .FALSE.
   LSORBIT = .TRUE.

 POTCAR:    PAW_PBE Mo 08Apr2002
 POTCAR:    PAW_PBE Se 06Sep2000
|           W    W    AA    RRRRR   N    N  II  N    N   GGGG   !!!           |
|           W    W   A  A   R    R  NN   N  II  NN   N  G    G  !!!           |
|           W    W  A    A  R    R  N N  N  II  N N  N  G       !!!           |
|           W WW W  AAAAAA  RRRRR   N  N N  II  N  N N  G  GGG   !            |
|           WW  WW  A    A  R   R   N   NN  II  N   NN  G    G                |
|           W    W  A    A  R    R  N    N  II  N    N   GGGG   !!!           |
|     You use a magnetic or noncollinear calculation, but did not specify     |
|     the initial magnetic moment with the MAGMOM tag. Note that a            |
|     default of 1 will be used for all atoms. This ferromagnetic setup       |
|     may break the symmetry of the crystal, in particular it may rule        |
|     out finding an antiferromagnetic solution. Thence, we recommend         |
|     setting the initial magnetic moment manually or verifying carefully     |
|     that this magnetic setup is desired.                                    |

 POTCAR:    PAW_PBE Mo 08Apr2002

 POTCAR:    PAW_PBE Se 06Sep2000

  PAW_PBE Mo 08Apr2002                  :
  PAW_PBE Se 06Sep2000                  :

 POSCAR: Mo  S
  positions in direct lattice
  velocities in cartesian coordinates
 exchange correlation table for  LEXCH =        8
   RHO(1)=    0.500       N(1)  =     2000
   RHO(2)=  100.500       N(2)  =     4000

 VTST: version 4.2, (08/11/21)

 CHAIN: initializing optimizer

 OPT: Using VASP Dynamics algorithm
 CHAIN: Read ICHAIN            0

 POSCAR: Mo  S
  positions in direct lattice
  velocities in cartesian coordinates

 ion  position               nearest neighbor table
   1  0.656  0.328  0.500-   3 2.54   2 2.54   2 2.54   3 2.54   3 2.54   2 2.54
   2  0.990  0.995  0.389-   1 2.54   1 2.54   1 2.54
   3  0.990  0.995  0.612-   1 2.54   1 2.54   1 2.54

  LATTYP: Found a hexagonal cell.
 ALAT       =     3.3200000000
 C/A-ratio  =     4.5180722892

  Lattice vectors:

 A1 = (   3.3200000000,   0.0000000000,   0.0000000000)
 A2 = (  -1.6600000000,   2.8752043406,   0.0000000000)
 A3 = (   0.0000000000,   0.0000000000,  15.0000000000)

Analysis of symmetry for initial positions (statically):
 Subroutine PRICEL returns:
 Original cell was already a primitive cell.

 Routine SETGRP: Setting up the symmetry group for a
 hexagonal supercell.

 Subroutine GETGRP returns: Found  2 space group operations
 (whereof  2 operations were pure point group operations)
 out of a pool of 24 trial point group operations.

The static configuration has the point symmetry C_1h.

Analysis of symmetry for dynamics (positions and initial velocities):
 Subroutine PRICEL returns:
 Original cell was already a primitive cell.

[...]

The dynamic configuration has the point symmetry C_1h.

Analysis of structural, dynamic, and magnetic symmetry:
 Subroutine PRICEL returns:
 Original cell was already a primitive cell.

 Routine SETGRP: Setting up the symmetry group for a
 hexagonal supercell.

 Subroutine GETGRP returns: Found  1 space group operations
 (whereof  1 operations were pure point group operations)
 out of a pool of 24 trial point group operations.

The overall configuration has the point symmetry C_1 .

 Subroutine INISYM returns: Found  1 space group operations
 (whereof  1 operations are pure point group operations),
 and found     1 'primitive' translations

                                     Primitive cell

  volume of cell :     143.1852

  direct lattice vectors                    reciprocal lattice vectors
     3.320000000  0.000000000  0.000000000     0.301204819  0.173900683  0.000000000
    -1.660000000  2.875204341  0.000000000     0.000000000  0.347801367  0.000000000
     0.000000000  0.000000000 15.000000000     0.000000000  0.000000000  0.066666667

  length of vectors
     3.320000000  3.320000000 15.000000000     0.347801367  0.347801367  0.066666667

  position of ions in fractional coordinates (direct lattice)
     0.656360473  0.328183185  0.500455147
     0.989670353  0.994833693  0.389220100
     0.989712767  0.994854919  0.611690486

  ion indices of the primitive-cell ions
   primitive index   ion index
                 1           1
                 2           2
                 3           3

 KPOINTS: dummy

Interpolating k-points between supplied coordinates.

 Line segments in fractional coordinates (reciprocal lattice):
    0.000000  0.500000  0.000000  ...  0.000000  0.000000  0.000000
    0.000000  0.000000  0.000000  ...  0.333330  0.333330  0.000000
    0.333330  0.333330  0.000000  ... -0.333330  0.666670  0.000000
   -0.333330  0.666670  0.000000  ...  0.000000  0.000000  0.000000

 Generated    80 points on each line segment, for a total of    320 k-points:

 Following reciprocal coordinates:
            Coordinates               Weight
  0.000000  0.500000  0.000000      0.003125
  0.000000  0.493671  0.000000      0.003125
  0.000000  0.487342  0.000000      0.003125
  0.000000  0.481013  0.000000      0.003125
  0.000000  0.474684  0.000000      0.003125
  0.000000  0.468354  0.000000      0.003125
  0.000000  0.462025  0.000000      0.003125
  0.000000  0.455696  0.000000      0.003125
  0.000000  0.449367  0.000000      0.003125
  0.000000  0.443038  0.000000      0.003125
  0.000000  0.436709  0.000000      0.003125
  0.000000  0.430380  0.000000      0.003125
  0.000000  0.424051  0.000000      0.003125
  0.000000  0.417722  0.000000      0.003125
  0.000000  0.411392  0.000000      0.003125
  0.000000  0.405063  0.000000      0.003125
  0.000000  0.398734  0.000000      0.003125
  0.000000  0.392405  0.000000      0.003125
  0.000000  0.386076  0.000000      0.003125
  0.000000  0.379747  0.000000      0.003125
  0.000000  0.373418  0.000000      0.003125
  0.000000  0.367089  0.000000      0.003125
  0.000000  0.360759  0.000000      0.003125
  0.000000  0.354430  0.000000      0.003125
  0.000000  0.348101  0.000000      0.003125
  0.000000  0.341772  0.000000      0.003125
  0.000000  0.335443  0.000000      0.003125
  0.000000  0.329114  0.000000      0.003125
  0.000000  0.322785  0.000000      0.003125
  0.000000  0.316456  0.000000      0.003125
  0.000000  0.310127  0.000000      0.003125
  0.000000  0.303797  0.000000      0.003125
  0.000000  0.297468  0.000000      0.003125
  0.000000  0.291139  0.000000      0.003125
  0.000000  0.284810  0.000000      0.003125
  0.000000  0.278481  0.000000      0.003125
  0.000000  0.272152  0.000000      0.003125
  0.000000  0.265823  0.000000      0.003125
  0.000000  0.259494  0.000000      0.003125
  0.000000  0.253165  0.000000      0.003125
  0.000000  0.246835  0.000000      0.003125
  0.000000  0.240506  0.000000      0.003125
  0.000000  0.234177  0.000000      0.003125
  0.000000  0.227848  0.000000      0.003125
  0.000000  0.221519  0.000000      0.003125
  0.000000  0.215190  0.000000      0.003125
  0.000000  0.208861  0.000000      0.003125
  0.000000  0.202532  0.000000      0.003125
  0.000000  0.196203  0.000000      0.003125
  0.000000  0.189873  0.000000      0.003125
  0.000000  0.183544  0.000000      0.003125
  0.000000  0.177215  0.000000      0.003125
  0.000000  0.170886  0.000000      0.003125
  0.000000  0.164557  0.000000      0.003125
  0.000000  0.158228  0.000000      0.003125
  0.000000  0.151899  0.000000      0.003125
  0.000000  0.145570  0.000000      0.003125
  0.000000  0.139241  0.000000      0.003125
  0.000000  0.132911  0.000000      0.003125
  0.000000  0.126582  0.000000      0.003125
[...]
 -0.059071  0.118144  0.000000      0.003125
 -0.054852  0.109705  0.000000      0.003125
 -0.050632  0.101266  0.000000      0.003125
 -0.046413  0.092827  0.000000      0.003125
 -0.042194  0.084389  0.000000      0.003125
 -0.037974  0.075950  0.000000      0.003125
 -0.033755  0.067511  0.000000      0.003125
 -0.029536  0.059072  0.000000      0.003125
 -0.025316  0.050633  0.000000      0.003125
 -0.021097  0.042194  0.000000      0.003125
 -0.016877  0.033755  0.000000      0.003125
 -0.012658  0.025317  0.000000      0.003125
 -0.008439  0.016878  0.000000      0.003125
 -0.004219  0.008439  0.000000      0.003125
  0.000000  0.000000  0.000000      0.003125

 Following cartesian coordinates:
            Coordinates               Weight
  0.000000  0.173901  0.000000      0.003125
  0.000000  0.171699  0.000000      0.003125
  0.000000  0.169498  0.000000      0.003125
  0.000000  0.167297  0.000000      0.003125
  0.000000  0.165096  0.000000      0.003125
  0.000000  0.162894  0.000000      0.003125
  0.000000  0.160693  0.000000      0.003125
  0.000000  0.158492  0.000000      0.003125
  0.000000  0.156290  0.000000      0.003125
  0.000000  0.154089  0.000000      0.003125
  0.000000  0.151888  0.000000      0.003125
  0.000000  0.149687  0.000000      0.003125
  0.000000  0.147485  0.000000      0.003125
  0.000000  0.145284  0.000000      0.003125
  0.000000  0.143083  0.000000      0.003125
  0.000000  0.140882  0.000000      0.003125
  0.000000  0.138680  0.000000      0.003125
  0.000000  0.136479  0.000000      0.003125
  0.000000  0.134278  0.000000      0.003125
  0.000000  0.132076  0.000000      0.003125
  0.000000  0.129875  0.000000      0.003125
  0.000000  0.127674  0.000000      0.003125
  0.000000  0.125473  0.000000      0.003125
  0.000000  0.123271  0.000000      0.003125
  0.000000  0.121070  0.000000      0.003125
  0.000000  0.118869  0.000000      0.003125
  0.000000  0.116668  0.000000      0.003125
  0.000000  0.114466  0.000000      0.003125
  0.000000  0.112265  0.000000      0.003125
  0.000000  0.110064  0.000000      0.003125
  0.000000  0.107862  0.000000      0.003125
  0.000000  0.105661  0.000000      0.003125
  0.000000  0.103460  0.000000      0.003125
  0.000000  0.101259  0.000000      0.003125
  0.000000  0.099057  0.000000      0.003125
  0.000000  0.096856  0.000000      0.003125
  0.000000  0.094655  0.000000      0.003125
  0.000000  0.092454  0.000000      0.003125
  0.000000  0.090252  0.000000      0.003125
  0.000000  0.088051  0.000000      0.003125
  0.000000  0.085850  0.000000      0.003125
  0.000000  0.083648  0.000000      0.003125
  0.000000  0.081447  0.000000      0.003125
  0.000000  0.079246  0.000000      0.003125
  0.000000  0.077045  0.000000      0.003125
  0.000000  0.074843  0.000000      0.003125
  0.000000  0.072642  0.000000      0.003125
  0.000000  0.070441  0.000000      0.003125
  0.000000  0.068240  0.000000      0.003125
  0.000000  0.066038  0.000000      0.003125
  0.000000  0.063837  0.000000      0.003125
  0.000000  0.061636  0.000000      0.003125
  0.000000  0.059434  0.000000      0.003125
[...]
 k-point   8 :   0.0000 0.4557 0.0000  plane waves:    2198
 k-point   9 :   0.0000 0.4494 0.0000  plane waves:    2198
 k-point  10 :   0.0000 0.4430 0.0000  plane waves:    2198
 k-point  11 :   0.0000 0.4367 0.0000  plane waves:    2206
 k-point  12 :   0.0000 0.4304 0.0000  plane waves:    2206
 k-point  13 :   0.0000 0.4241 0.0000  plane waves:    2202
 k-point  14 :   0.0000 0.4177 0.0000  plane waves:    2202
 k-point  15 :   0.0000 0.4114 0.0000  plane waves:    2198
 k-point  16 :   0.0000 0.4051 0.0000  plane waves:    2198
 k-point  17 :   0.0000 0.3987 0.0000  plane waves:    2190
 k-point  18 :   0.0000 0.3924 0.0000  plane waves:    2190
 k-point  19 :   0.0000 0.3861 0.0000  plane waves:    2190
 k-point  20 :   0.0000 0.3797 0.0000  plane waves:    2202
 k-point  21 :   0.0000 0.3734 0.0000  plane waves:    2202
 k-point  22 :   0.0000 0.3671 0.0000  plane waves:    2194
 k-point  23 :   0.0000 0.3608 0.0000  plane waves:    2194
 k-point  24 :   0.0000 0.3544 0.0000  plane waves:    2186
 k-point  25 :   0.0000 0.3481 0.0000  plane waves:    2186
 k-point  26 :   0.0000 0.3418 0.0000  plane waves:    2182
 k-point  27 :   0.0000 0.3354 0.0000  plane waves:    2170
 k-point  28 :   0.0000 0.3291 0.0000  plane waves:    2170
 k-point  29 :   0.0000 0.3228 0.0000  plane waves:    2178
 k-point  30 :   0.0000 0.3165 0.0000  plane waves:    2182
 k-point  31 :   0.0000 0.3101 0.0000  plane waves:    2194
 k-point  32 :   0.0000 0.3038 0.0000  plane waves:    2194
 k-point  33 :   0.0000 0.2975 0.0000  plane waves:    2202
 k-point  34 :   0.0000 0.2911 0.0000  plane waves:    2194
 k-point  35 :   0.0000 0.2848 0.0000  plane waves:    2190
 k-point  36 :   0.0000 0.2785 0.0000  plane waves:    2190
 k-point  37 :   0.0000 0.2722 0.0000  plane waves:    2190
 k-point  38 :   0.0000 0.2658 0.0000  plane waves:    2194
 k-point  39 :   0.0000 0.2595 0.0000  plane waves:    2186
 k-point  40 :   0.0000 0.2532 0.0000  plane waves:    2178
 k-point  41 :   0.0000 0.2468 0.0000  plane waves:    2182
 k-point  42 :   0.0000 0.2405 0.0000  plane waves:    2182
 k-point  43 :   0.0000 0.2342 0.0000  plane waves:    2182
 k-point  44 :   0.0000 0.2278 0.0000  plane waves:    2166
 k-point  45 :   0.0000 0.2215 0.0000  plane waves:    2166
 k-point  46 :   0.0000 0.2152 0.0000  plane waves:    2166
 k-point  47 :   0.0000 0.2089 0.0000  plane waves:    2174
 k-point  48 :   0.0000 0.2025 0.0000  plane waves:    2166
 k-point  49 :   0.0000 0.1962 0.0000  plane waves:    2166
 k-point  50 :   0.0000 0.1899 0.0000  plane waves:    2166
 k-point  51 :   0.0000 0.1835 0.0000  plane waves:    2162
 k-point  52 :   0.0000 0.1772 0.0000  plane waves:    2146
 k-point  53 :   0.0000 0.1709 0.0000  plane waves:    2154
 k-point  54 :   0.0000 0.1646 0.0000  plane waves:    2138
 k-point  55 :   0.0000 0.1582 0.0000  plane waves:    2142
 k-point  56 :   0.0000 0.1519 0.0000  plane waves:    2142
 k-point  57 :   0.0000 0.1456 0.0000  plane waves:    2142
 k-point  58 :   0.0000 0.1392 0.0000  plane waves:    2126
 k-point  59 :   0.0000 0.1329 0.0000  plane waves:    2122
 k-point  60 :   0.0000 0.1266 0.0000  plane waves:    2122
[...]
 k-point 306 :  -0.0591 0.1181 0.0000  plane waves:    2116
 k-point 307 :  -0.0549 0.1097 0.0000  plane waves:    2108
 k-point 308 :  -0.0506 0.1013 0.0000  plane waves:    2108
 k-point 309 :  -0.0464 0.0928 0.0000  plane waves:    2112
 k-point 310 :  -0.0422 0.0844 0.0000  plane waves:    2112
 k-point 311 :  -0.0380 0.0759 0.0000  plane waves:    2112
 k-point 312 :  -0.0338 0.0675 0.0000  plane waves:    2104
 k-point 313 :  -0.0295 0.0591 0.0000  plane waves:    2112
 k-point 314 :  -0.0253 0.0506 0.0000  plane waves:    2118
 k-point 315 :  -0.0211 0.0422 0.0000  plane waves:    2110
 k-point 316 :  -0.0169 0.0338 0.0000  plane waves:    2114
 k-point 317 :  -0.0127 0.0253 0.0000  plane waves:    2126
 k-point 318 :  -0.0084 0.0169 0.0000  plane waves:    2130
 k-point 319 :  -0.0042 0.0084 0.0000  plane waves:    2138
 k-point 320 :   0.0000 0.0000 0.0000  plane waves:    2150

 maximum and minimum number of plane-waves per node :       388      340

 maximum number of plane-waves:      2228
 maximum index in each direction:
   IXMAX=    4   IYMAX=    4   IZMAX=   18
   IXMIN=   -4   IYMIN=   -4   IZMIN=  -18

 parallel 3D FFT for wavefunctions:
    minimum data exchange during FFTs selected (reduces bandwidth)
 parallel 3D FFT for charge:
    minimum data exchange during FFTs selected (reduces bandwidth)

 initial charge density was supplied:
 number of electron      18.0000002 magnetization       0.0000325      0.0000327      0.0000328
 keeping initial charge density in first step

 Maximum index for augmentation-charges          379 (set IRDMAX)

 First call to EWALD:  gamma=   0.339
 Maximum number of real-space cells 5x 5x 1
 Maximum number of reciprocal cells 2x 2x 7

--------------------------------------- Iteration      1(   1)  ---------------------------------------

 eigenvalue-minimisations  : 20848
 total energy-change (2. order) : 0.7161256E+02  (-0.4111516E+03)
 number of electron      18.0000002 magnetization       0.0000325      0.0000327      0.0000328
 augmentation part       18.0000002 magnetization       0.0000325      0.0000327      0.0000328

 Free energy of the ion-electron system (eV)
  alpha Z        PSCENC =        28.99437212
  Ewald energy   TEWEN  =       932.31351475
  -Hartree energ DENC   =     -1639.85709586
  -exchange      EXHF   =         0.00000000
  -V(xc)+E(xc)   XCENC  =       -61.13224731
  PAW double counting   =      1192.96551435    -1095.79969004
  entropy T*S    EENTRO =        -0.00727125
  eigenvalues    EBANDS =       -17.58519528
  atomic energy  EATOM  =       731.72065890
  Solvation  Ediel_sol  =         0.00000000
  free energy    TOTEN  =        71.61256038 eV

  energy without entropy =       71.61983163  energy(sigma->0) =       71.61619600

[...]

 eigenvalue-minimisations  : 28712
 total energy-change (2. order) :-0.8388137E+02  (-0.7859936E+02)
 number of electron      18.0000002 magnetization       0.0000325      0.0000327      0.0000328
 augmentation part       18.0000002 magnetization       0.0000325      0.0000327      0.0000328

[...]

 total charge

# of ion       s       p       d       tot
    1        0.389   0.486   4.609   5.484
    2        1.465   2.281   0.061   3.808
    3        1.465   2.281   0.061   3.808
tot          3.319   5.048   4.732  13.099

 magnetization (x)

[...]

 magnetization (y)

[...]

 magnetization (z)

[...]

--------------------------------------- Iteration      1(   8)  ---------------------------------------

 eigenvalue-minimisations  : 20200
 total energy-change (2. order) :-0.8395432E-07  (-0.8395985E-07)
 number of electron      18.0000002 magnetization       0.0000325      0.0000327      0.0000328
 augmentation part       18.0000002 magnetization       0.0000325      0.0000327      0.0000328

 Free energy of the ion-electron system (eV)
  alpha Z        PSCENC =        28.99437212
  Ewald energy   TEWEN  =       932.31351475
  -Hartree energ DENC   =     -1639.85709586
  -exchange      EXHF   =         0.00000000
  -V(xc)+E(xc)   XCENC  =       -61.13224731
  PAW double counting   =      1192.96551435    -1095.79969004
  entropy T*S    EENTRO =        -0.00000000
  eigenvalues    EBANDS =      -108.74580084
  atomic energy  EATOM  =       731.72065890
  Solvation  Ediel_sol  =         0.00000000
  free energy    TOTEN  =       -19.54077393 eV

  energy without entropy =      -19.54077393  energy(sigma->0) =      -19.54077393

 average (electrostatic) potential at core
  the test charge radii are     1.2296  1.0808
  (the norm of the test charge is              1.0000)
       1 -44.5648       2 -59.2390       3 -59.2385

 E-fermi :  -0.6124     XC(G=0):  -5.2019     alpha+bet : -4.5538

 Fermi energy:        -0.6123759311

 k-point     1 :       0.0000    0.5000    0.0000
  band No.  band energies     occupation
      1     -13.6179      1.00000
      2     -13.6179      1.00000
      3     -13.3819      1.00000
      4     -13.3819      1.00000
      5      -6.7396      1.00000
      6      -6.7396      1.00000
      7      -5.8601      1.00000
      8      -5.8601      1.00000
      9      -4.9394      1.00000
     10      -4.9394      1.00000
     11      -3.8901      1.00000
     12      -3.8901      1.00000
     13      -3.0122      1.00000
     14      -3.0122      1.00000
     15      -1.8668      1.00000
     16      -1.8668      1.00000
     17      -1.7639      1.00000
     18      -1.7639      1.00000
     19       0.6765      0.00000
     20       0.6765      0.00000
     21       1.1104      0.00000
     22       1.1104      0.00000
     23       2.4002      0.00000
     24       2.4002      0.00000
     25       2.8327      0.00000
     26       2.8327      0.00000
     27       4.2989      0.00000
     28       4.2990      0.00000
     29       6.2375      0.00000
     30       6.2379      0.00000
     31       6.2941      0.00000
     32       6.2951      0.00000

[...]

 k-point   320 :       0.0000    0.0000    0.0000
  band No.  band energies     occupation
      1     -15.2996      1.00000
      2     -15.2996      1.00000
      3     -14.3621      1.00000
      4     -14.3621      1.00000
      5      -6.4929      1.00000
      6      -6.4929      1.00000
      7      -3.3177      1.00000
      8      -3.3177      1.00000
      9      -3.2848      1.00000
     10      -3.2848      1.00000
     11      -2.9133      1.00000
     12      -2.9133      1.00000
     13      -2.4011      1.00000
     14      -2.4011      1.00000
     15      -2.2066      1.00000
     16      -2.2066      1.00000
     17      -1.3922      1.00000
     18      -1.3922      1.00000
     19       1.5713      0.00000
     20       1.5713      0.00000
     21       1.8267      0.00000
     22       1.8267      0.00000
     23       1.8356      0.00000
     24       1.8356      0.00000
     25       2.0402      0.00000
     26       2.0402      0.00000
     27       3.4082      0.00000
     28       3.4386      0.00000
     29       4.1333      0.00000
     30       4.1431      0.00000
     31       4.7399      0.00000
     32       4.7797      0.00000

 soft charge-density along one line, spin component           1
         0         1         2         3         4         5         6         7         8         9
 total charge-density along one line

[...]

 soft charge-density along one line, spin component           4
         0         1         2         3         4         5         6         7         8         9
 total charge-density along one line

------------------------ aborting loop because EDIFF is reached ----------------------------------------

[...]

  FORCE on cell =-STRESS in cart. coord.  units (eV):
  Direction    XX          YY          ZZ          XY          YZ          ZX
  Alpha Z    28.99437    28.99437    28.99437
  Ewald    1474.19609  1474.19937 -2016.08190     0.00018    -0.00213    -0.00368
  Hartree  1618.48623  1617.24452 -1587.28175     0.00003    -0.00026    -0.00037
  E(xc)     -73.25133   -71.44048   -73.15468     0.00002     0.00008     0.00009
  Local   -3332.90289 -3324.49146  3361.08764    -0.00023     0.00231     0.00355
  n-local    57.98412    59.44375    65.23394     0.00003    -0.00029    -0.00067
  augment     2.29104     1.68125     0.72335    -0.00019    -0.00001     0.00002
  Kinetic   224.01241   214.08351   221.21489    -0.00013    -0.00029    -0.00042
  Fock        0.00000     0.00000     0.00000     0.00000     0.00000     0.00000
  Total      -0.18995    -0.28516     0.73587    -0.00028    -0.00058    -0.00146
  in kB      -2.12549    -3.19083     8.23407    -0.00319    -0.00645    -0.01636

 VOLUME and BASIS-vectors are now :
  energy-cutoff  :      224.58
  volume of cell :      143.19
      direct lattice vectors                 reciprocal lattice vectors
     3.320000000  0.000000000  0.000000000     0.301204819  0.173900683  0.000000000
    -1.660000000  2.875204341  0.000000000     0.000000000  0.347801367  0.000000000
     0.000000000  0.000000000 15.000000000     0.000000000  0.000000000  0.066666667

  length of vectors
     3.320000000  3.320000000 15.000000000     0.347801367  0.347801367  0.066666667

 FORCES acting on ions
    electron-ion (+dipol)            ewald-force                    non-local-force                 convergence-correction
   -.154E-03 -.265E+00 -.757E-02   0.840E-04 -.764E-03 -.105E-04   -.429E-05 0.130E+00 -.484E-03   0.102E-03 0.331E-01 0.784E-02
   -.118E-02 0.945E+00 0.435E+03   0.106E-02 0.102E-02 -.432E+03   0.320E-03 -.173E+00 0.188E+01   0.123E-03 -.670E+00 -.403E+01
   0.116E-02 0.946E+00 -.435E+03   -.114E-02 -.255E-03 0.432E+03   -.335E-03 -.173E+00 -.188E+01   -.532E-04 -.671E+00 0.404E+01
   -.176E-03 0.163E+01 -.174E-01   -.962E-14 -.634E-15 0.000E+00   -.198E-04 -.216E+00 0.127E-03   0.171E-03 -.131E+01 0.172E-01

 POSITION                                       TOTAL-FORCE (eV/Angst)
      1.63433      0.94359      7.50683         0.000036     -0.136636     -0.000202
      1.63428      2.86035      5.83830         0.000328      0.068446      0.077471
      1.63439      2.86041      9.17536        -0.000363      0.068190     -0.077269
    total drift:                               -0.000025      0.102323     -0.000071

  FREE ENERGIE OF THE ION-ELECTRON SYSTEM (eV)
  free  energy   TOTEN  =       -19.54077393 eV

  energy  without entropy=      -19.54077393  energy(sigma->0) =      -19.54077393

 stress matrix after NEB project (eV)
     -0.18995     -0.00028     -0.00146
     -0.00028     -0.28516     -0.00058
     -0.00146     -0.00058      0.73587
  FORCES: max atom, RMS     0.136636    0.115436
  FORCE total and by dimension    0.199941    0.136636
  Stress total and by dimension    0.811734    0.735871
 writing wavefunctions

 Spin-Orbit-Coupling matrix elements

 Ion:    1  E_soc:     -0.0285741
 l=   1
     0.0000000    -0.0023719    -0.0017646
    -0.0023719     0.0000000    -0.0017038
    -0.0017646    -0.0017038     0.0000000
 l=   2
     0.0000000    -0.0003158     0.0000000    -0.0005190    -0.0029358
    -0.0003158     0.0000000    -0.0017735    -0.0002754    -0.0005427
     0.0000000    -0.0017735     0.0000000    -0.0014208     0.0000000
    -0.0005190    -0.0002754    -0.0014208     0.0000000    -0.0006637
    -0.0029358    -0.0005427     0.0000000    -0.0006637     0.0000000
 l=   3
     0.0000000     0.0000000     0.0000000     0.0000000     0.0000000     0.0000000     0.0000000
     0.0000000     0.0000000     0.0000000     0.0000000     0.0000000     0.0000000     0.0000000
     0.0000000     0.0000000     0.0000000     0.0000000     0.0000000     0.0000000     0.0000000
     0.0000000     0.0000000     0.0000000     0.0000000     0.0000000     0.0000000     0.0000000
     0.0000000     0.0000000     0.0000000     0.0000000     0.0000000     0.0000000     0.0000000
     0.0000000     0.0000000     0.0000000     0.0000000     0.0000000     0.0000000     0.0000000
     0.0000000     0.0000000     0.0000000     0.0000000     0.0000000     0.0000000     0.0000000

[...]

 Ion:    3  E_soc:     -0.0408427
 l=   1
     0.0000000    -0.0066864    -0.0069181
    -0.0066864     0.0000000    -0.0068103
    -0.0069181    -0.0068103     0.0000000
 l=   2
     0.0000000    -0.0000002     0.0000000    -0.0000006    -0.0000096
    -0.0000002     0.0000000    -0.0000036     0.0000069     0.0000025
     0.0000000    -0.0000036     0.0000000    -0.0000018     0.0000000
    -0.0000006     0.0000069    -0.0000018     0.0000000    -0.0000001
    -0.0000096     0.0000025     0.0000000    -0.0000001     0.0000000
 l=   3
     0.0000000     0.0000000     0.0000000     0.0000000     0.0000000     0.0000000     0.0000000
     0.0000000     0.0000000     0.0000000     0.0000000     0.0000000     0.0000000     0.0000000
     0.0000000     0.0000000     0.0000000     0.0000000     0.0000000     0.0000000     0.0000000
     0.0000000     0.0000000     0.0000000     0.0000000     0.0000000     0.0000000     0.0000000
     0.0000000     0.0000000     0.0000000     0.0000000     0.0000000     0.0000000     0.0000000
     0.0000000     0.0000000     0.0000000     0.0000000     0.0000000     0.0000000     0.0000000
     0.0000000     0.0000000     0.0000000     0.0000000     0.0000000     0.0000000     0.0000000

 total charge

[...]

 magnetization (x)

[...]

 magnetization (y)

[...]

 magnetization (z)

# of ion       s       p       d       tot
    1       -0.000  -0.000  -0.000  -0.000
    2       -0.000  -0.000   0.000  -0.000
    3       -0.000  -0.000  -0.000  -0.000
tot         -0.000  -0.000  -0.000  -0.000