 vasp.6.3.0 20Jan22 (build Oct 03 2022 14:51:58) complex

 executed on             LinuxIFC date 2024.09.19  16:09:13

 INCAR:
   SYSTEM = MoSe2
   PREC = Accurate
   ISPIN = 1
   ISTART = 0
   ICHARG = 1
   NPAR = 8
   ISMEAR = 0
   SIGMA = 0.1
   ALGO = Normal
   NELMIN = 4
   NELM = 200
   EDIFF = 1E-6
   MAGMOM = 0 0 1 6*0
   IBRION = -1
   NWRITE = 1
   LORBIT = 11
   LWAVE = .TRUE.
   LCHARG = .TRUE.
   LSORBIT = .TRUE.

 POTCAR:    PAW_PBE Mo 08Apr2002
 POTCAR:    PAW_PBE Se 06Sep2000
 POTCAR:    PAW_PBE Mo 08Apr2002

 POTCAR:    PAW_PBE Se 06Sep2000

  PAW_PBE Mo 08Apr2002                  :
  PAW_PBE Se 06Sep2000                  :

 POSCAR: Mo  S
  positions in direct lattice
  velocities in cartesian coordinates
 exchange correlation table for  LEXCH =        8
   RHO(1)=    0.500       N(1)  =     2000
   RHO(2)=  100.500       N(2)  =     4000

 VTST: version 4.2, (08/11/21)

 CHAIN: initializing optimizer

 OPT: Using VASP Dynamics algorithm
 CHAIN: Read ICHAIN            0

 POSCAR: Mo  S
  positions in direct lattice
  velocities in cartesian coordinates

 ion  position               nearest neighbor table
   1  0.656  0.328  0.500-   3 2.54   2 2.54   2 2.54   3 2.54   3 2.54   2 2.54
   2  0.990  0.995  0.389-   1 2.54   1 2.54   1 2.54
   3  0.990  0.995  0.612-   1 2.54   1 2.54   1 2.54

  LATTYP: Found a hexagonal cell.
 ALAT       =     3.3200000000
 C/A-ratio  =     4.5180722892

  Lattice vectors:

 A1 = (   3.3200000000,   0.0000000000,   0.0000000000)
 A2 = (  -1.6600000000,   2.8752043406,   0.0000000000)
 A3 = (   0.0000000000,   0.0000000000,  15.0000000000)

Analysis of symmetry for initial positions (statically):
 Subroutine PRICEL returns:
 Original cell was already a primitive cell.

 Routine SETGRP: Setting up the symmetry group for a
 hexagonal supercell.

 Subroutine GETGRP returns: Found  2 space group operations
 (whereof  2 operations were pure point group operations)
 out of a pool of 24 trial point group operations.

The static configuration has the point symmetry C_1h.

Analysis of symmetry for dynamics (positions and initial velocities):
 Subroutine PRICEL returns:
 Original cell was already a primitive cell.

[...]

The dynamic configuration has the point symmetry C_1h.

Analysis of structural, dynamic, and magnetic symmetry:
 Subroutine PRICEL returns:
 Original cell was already a primitive cell.

 Routine SETGRP: Setting up the symmetry group for a
 hexagonal supercell.

 Subroutine GETGRP returns: Found  1 space group operations
 (whereof  1 operations were pure point group operations)
 out of a pool of 24 trial point group operations.

The overall configuration has the point symmetry C_1 .

 Subroutine INISYM returns: Found  1 space group operations
 (whereof  1 operations are pure point group operations),
 and found     1 'primitive' translations

                                     Primitive cell

  volume of cell :     143.1852

  direct lattice vectors                    reciprocal lattice vectors
     3.320000000  0.000000000  0.000000000     0.301204819  0.173900683  0.000000000
    -1.660000000  2.875204341  0.000000000     0.000000000  0.347801367  0.000000000
     0.000000000  0.000000000 15.000000000     0.000000000  0.000000000  0.066666667

  length of vectors
     3.320000000  3.320000000 15.000000000     0.347801367  0.347801367  0.066666667

  position of ions in fractional coordinates (direct lattice)
     0.656360473  0.328183185  0.500455147
     0.989670353  0.994833693  0.389220100
     0.989712767  0.994854919  0.611690486

  ion indices of the primitive-cell ions
   primitive index   ion index
                 1           1
                 2           2
                 3           3

 KPOINTS: Automatic mesh

Automatic generation of k-mesh.
 Grid dimensions read from file:
 generate k-points for:   21   21    1

 Generating k-lattice:

  Cartesian coordinates                     Fractional coordinates (reciprocal lattice)
     0.014343087  0.008280985  0.000000000     0.047619048 -0.000000000  0.000000000
     0.000000000  0.016561970  0.000000000     0.000000000  0.047619048  0.000000000
     0.000000000  0.000000000  0.066666667     0.000000000  0.000000000  1.000000000

  Length of vectors
     0.016561970  0.016561970  0.066666667

  Shift w.r.t. Gamma in fractional coordinates (k-lattice)
     0.000000000  0.000000000  0.000000000

 Subroutine IBZKPT returns following result:

 Found    441 irreducible k-points:

 Following reciprocal coordinates:
            Coordinates               Weight
  0.000000  0.000000  0.000000      1.000000
  0.047619 -0.000000  0.000000      1.000000
 -0.047619  0.000000  0.000000      1.000000
  0.000000  0.047619  0.000000      1.000000
  0.000000 -0.047619  0.000000      1.000000
 -0.047619  0.047619  0.000000      1.000000
  0.047619 -0.047619  0.000000      1.000000
  0.095238  0.000000  0.000000      1.000000
 -0.095238 -0.000000  0.000000      1.000000
  0.000000  0.095238  0.000000      1.000000
  0.000000 -0.095238  0.000000      1.000000
 -0.095238  0.095238  0.000000      1.000000
  0.095238 -0.095238  0.000000      1.000000
  0.142857 -0.000000  0.000000      1.000000
 -0.142857  0.000000  0.000000      1.000000
  0.000000  0.142857  0.000000      1.000000
  0.000000 -0.142857  0.000000      1.000000
 -0.142857  0.142857  0.000000      1.000000
  0.142857 -0.142857  0.000000      1.000000
  0.190476  0.000000  0.000000      1.000000
 -0.190476 -0.000000  0.000000      1.000000
  0.000000  0.190476  0.000000      1.000000
  0.000000 -0.190476  0.000000      1.000000
 -0.190476  0.190476  0.000000      1.000000
  0.190476 -0.190476  0.000000      1.000000
  0.238095 -0.000000  0.000000      1.000000
 -0.238095  0.000000  0.000000      1.000000
  0.000000  0.238095  0.000000      1.000000
  0.000000 -0.238095  0.000000      1.000000
 -0.238095  0.238095  0.000000      1.000000
  0.238095 -0.238095  0.000000      1.000000
  0.285714 -0.000000  0.000000      1.000000
 -0.285714  0.000000  0.000000      1.000000
  0.000000  0.285714  0.000000      1.000000
  0.000000 -0.285714  0.000000      1.000000
 -0.285714  0.285714  0.000000      1.000000
  0.285714 -0.285714  0.000000      1.000000
  0.333333 -0.000000  0.000000      1.000000
 -0.333333  0.000000  0.000000      1.000000
  0.000000  0.333333  0.000000      1.000000
  0.000000 -0.333333  0.000000      1.000000
 -0.333333  0.333333  0.000000      1.000000
  0.333333 -0.333333  0.000000      1.000000
  0.380952  0.000000  0.000000      1.000000
 -0.380952 -0.000000  0.000000      1.000000
  0.000000  0.380952  0.000000      1.000000
  0.000000 -0.380952  0.000000      1.000000
 -0.380952  0.380952  0.000000      1.000000
  0.380952 -0.380952  0.000000      1.000000
  0.428571  0.000000  0.000000      1.000000
 -0.428571 -0.000000  0.000000      1.000000
  0.000000  0.428571  0.000000      1.000000
  0.000000 -0.428571  0.000000      1.000000
 -0.428571  0.428571  0.000000      1.000000
  0.428571 -0.428571  0.000000      1.000000
  0.476190 -0.000000  0.000000      1.000000
 -0.476190  0.000000  0.000000      1.000000
  0.000000  0.476190  0.000000      1.000000
  0.000000 -0.476190  0.000000      1.000000
 -0.476190  0.476190  0.000000      1.000000
[...]
 -0.428571 -0.285714  0.000000      1.000000
  0.333333  0.285714  0.000000      1.000000
 -0.333333 -0.285714  0.000000      1.000000
 -0.285714 -0.380952  0.000000      1.000000
  0.285714  0.380952  0.000000      1.000000
  0.380952  0.333333  0.000000      1.000000
 -0.380952 -0.333333  0.000000      1.000000
 -0.333333 -0.380952  0.000000      1.000000
  0.333333  0.380952  0.000000      1.000000
  0.285714  0.333333  0.000000      1.000000
 -0.285714 -0.333333  0.000000      1.000000
 -0.380952 -0.285714  0.000000      1.000000
  0.380952  0.285714  0.000000      1.000000
  0.333333  0.333333  0.000000      1.000000
 -0.333333 -0.333333  0.000000      1.000000

 Following cartesian coordinates:
            Coordinates               Weight
  0.000000  0.000000  0.000000      1.000000
  0.014343  0.008281  0.000000      1.000000
 -0.014343 -0.008281  0.000000      1.000000
  0.000000  0.016562  0.000000      1.000000
  0.000000 -0.016562  0.000000      1.000000
 -0.014343  0.008281  0.000000      1.000000
  0.014343 -0.008281  0.000000      1.000000
  0.028686  0.016562  0.000000      1.000000
 -0.028686 -0.016562  0.000000      1.000000
  0.000000  0.033124  0.000000      1.000000
  0.000000 -0.033124  0.000000      1.000000
 -0.028686  0.016562  0.000000      1.000000
  0.028686 -0.016562  0.000000      1.000000
  0.043029  0.024843  0.000000      1.000000
 -0.043029 -0.024843  0.000000      1.000000
  0.000000  0.049686  0.000000      1.000000
  0.000000 -0.049686  0.000000      1.000000
 -0.043029  0.024843  0.000000      1.000000
  0.043029 -0.024843  0.000000      1.000000
  0.057372  0.033124  0.000000      1.000000
 -0.057372 -0.033124  0.000000      1.000000
  0.000000  0.066248  0.000000      1.000000
  0.000000 -0.066248  0.000000      1.000000
 -0.057372  0.033124  0.000000      1.000000
  0.057372 -0.033124  0.000000      1.000000
  0.071715  0.041405  0.000000      1.000000
 -0.071715 -0.041405  0.000000      1.000000
  0.000000  0.082810  0.000000      1.000000
  0.000000 -0.082810  0.000000      1.000000
 -0.071715  0.041405  0.000000      1.000000
  0.071715 -0.041405  0.000000      1.000000
  0.086059  0.049686  0.000000      1.000000
 -0.086059 -0.049686  0.000000      1.000000
  0.000000  0.099372  0.000000      1.000000
  0.000000 -0.099372  0.000000      1.000000
 -0.086059  0.049686  0.000000      1.000000
  0.086059 -0.049686  0.000000      1.000000
  0.100402  0.057967  0.000000      1.000000
 -0.100402 -0.057967  0.000000      1.000000
  0.000000  0.115934  0.000000      1.000000
  0.000000 -0.115934  0.000000      1.000000
 -0.100402  0.057967  0.000000      1.000000
  0.100402 -0.057967  0.000000      1.000000
  0.114745  0.066248  0.000000      1.000000
 -0.114745 -0.066248  0.000000      1.000000
  0.000000  0.132496  0.000000      1.000000
  0.000000 -0.132496  0.000000      1.000000
 -0.114745  0.066248  0.000000      1.000000
  0.114745 -0.066248  0.000000      1.000000
  0.129088  0.074529  0.000000      1.000000
 -0.129088 -0.074529  0.000000      1.000000
  0.000000  0.149058  0.000000      1.000000
  0.000000 -0.149058  0.000000      1.000000
 -0.129088  0.074529  0.000000      1.000000
  0.129088 -0.074529  0.000000      1.000000
  0.143431  0.082810  0.000000      1.000000
 -0.143431 -0.082810  0.000000      1.000000
  0.000000  0.165620  0.000000      1.000000
  0.000000 -0.165620  0.000000      1.000000
 -0.143431  0.082810  0.000000      1.000000
[...]
 -0.129088 -0.173901  0.000000      1.000000
  0.100402  0.157339  0.000000      1.000000
 -0.100402 -0.157339  0.000000      1.000000
 -0.086059 -0.182182  0.000000      1.000000
  0.086059  0.182182  0.000000      1.000000
  0.114745  0.182182  0.000000      1.000000
 -0.114745 -0.182182  0.000000      1.000000
 -0.100402 -0.190463  0.000000      1.000000
  0.100402  0.190463  0.000000      1.000000
  0.086059  0.165620  0.000000      1.000000
[...]
 k-point  24 :  -0.1905 0.1905 0.0000  plane waves:    2166
 k-point  25 :   0.1905-0.1905 0.0000  plane waves:    2166
 k-point  26 :   0.2381-0.0000 0.0000  plane waves:    2182
 k-point  27 :  -0.2381 0.0000 0.0000  plane waves:    2182
 k-point  28 :   0.0000 0.2381 0.0000  plane waves:    2182
 k-point  29 :   0.0000-0.2381 0.0000  plane waves:    2182
 k-point  30 :  -0.2381 0.2381 0.0000  plane waves:    2182
 k-point  31 :   0.2381-0.2381 0.0000  plane waves:    2182
 k-point  32 :   0.2857-0.0000 0.0000  plane waves:    2190
 k-point  33 :  -0.2857 0.0000 0.0000  plane waves:    2190
 k-point  34 :   0.0000 0.2857 0.0000  plane waves:    2190
 k-point  35 :   0.0000-0.2857 0.0000  plane waves:    2190
 k-point  36 :  -0.2857 0.2857 0.0000  plane waves:    2190
 k-point  37 :   0.2857-0.2857 0.0000  plane waves:    2190
 k-point  38 :   0.3333-0.0000 0.0000  plane waves:    2170
 k-point  39 :  -0.3333 0.0000 0.0000  plane waves:    2170
 k-point  40 :   0.0000 0.3333 0.0000  plane waves:    2170
 k-point  41 :   0.0000-0.3333 0.0000  plane waves:    2170
 k-point  42 :  -0.3333 0.3333 0.0000  plane waves:    2170
 k-point  43 :   0.3333-0.3333 0.0000  plane waves:    2170
 k-point  44 :   0.3810 0.0000 0.0000  plane waves:    2198
 k-point  45 :  -0.3810-0.0000 0.0000  plane waves:    2198
 k-point  46 :   0.0000 0.3810 0.0000  plane waves:    2198
 k-point  47 :   0.0000-0.3810 0.0000  plane waves:    2198
 k-point  48 :  -0.3810 0.3810 0.0000  plane waves:    2198
 k-point  49 :   0.3810-0.3810 0.0000  plane waves:    2198
 k-point  50 :   0.4286 0.0000 0.0000  plane waves:    2202
 k-point  51 :  -0.4286-0.0000 0.0000  plane waves:    2202
 k-point  52 :   0.0000 0.4286 0.0000  plane waves:    2202
 k-point  53 :   0.0000-0.4286 0.0000  plane waves:    2202
 k-point  54 :  -0.4286 0.4286 0.0000  plane waves:    2202
 k-point  55 :   0.4286-0.4286 0.0000  plane waves:    2202
 k-point  56 :   0.4762-0.0000 0.0000  plane waves:    2194
 k-point  57 :  -0.4762 0.0000 0.0000  plane waves:    2194
 k-point  58 :   0.0000 0.4762 0.0000  plane waves:    2194
 k-point  59 :   0.0000-0.4762 0.0000  plane waves:    2194
 k-point  60 :  -0.4762 0.4762 0.0000  plane waves:    2194
[...]
 k-point 427 :  -0.4286-0.2857 0.0000  plane waves:    2200
 k-point 428 :   0.3333 0.2857 0.0000  plane waves:    2190
 k-point 429 :  -0.3333-0.2857 0.0000  plane waves:    2190
 k-point 430 :  -0.2857-0.3810 0.0000  plane waves:    2190
 k-point 431 :   0.2857 0.3810 0.0000  plane waves:    2190
 k-point 432 :   0.3810 0.3333 0.0000  plane waves:    2190
 k-point 433 :  -0.3810-0.3333 0.0000  plane waves:    2190
 k-point 434 :  -0.3333-0.3810 0.0000  plane waves:    2190
 k-point 435 :   0.3333 0.3810 0.0000  plane waves:    2190
 k-point 436 :   0.2857 0.3333 0.0000  plane waves:    2190
 k-point 437 :  -0.2857-0.3333 0.0000  plane waves:    2190
 k-point 438 :  -0.3810-0.2857 0.0000  plane waves:    2190
 k-point 439 :   0.3810 0.2857 0.0000  plane waves:    2190
 k-point 440 :   0.3333 0.3333 0.0000  plane waves:    2184
 k-point 441 :  -0.3333-0.3333 0.0000  plane waves:    2184

 maximum and minimum number of plane-waves per node :       408      328

 maximum number of plane-waves:      2226
 maximum index in each direction:
   IXMAX=    4   IYMAX=    4   IZMAX=   18
   IXMIN=   -4   IYMIN=   -4   IZMIN=  -18

 parallel 3D FFT for wavefunctions:
    minimum data exchange during FFTs selected (reduces bandwidth)
 parallel 3D FFT for charge:
    minimum data exchange during FFTs selected (reduces bandwidth)

 Broyden mixing: mesh for mixing (old mesh)
   NGX =  9   NGY =  9   NGZ = 37
  (NGX  = 32   NGY  = 32   NGZ  =160)
  gives a total of   2997 points

 initial charge density was supplied:
 number of electron      18.0000002 magnetization       0.0000325      0.0000327      0.0000328
 keeping initial charge density in first step

 Maximum index for augmentation-charges          379 (set IRDMAX)

 First call to EWALD:  gamma=   0.339
 Maximum number of real-space cells 5x 5x 1
 Maximum number of reciprocal cells 2x 2x 7

--------------------------------------- Iteration      1(   1)  ---------------------------------------

 eigenvalue-minimisations  : 28456
 total energy-change (2. order) : 0.7223944E+02  (-0.4166535E+03)
 number of electron      18.0000002 magnetization       0.0000325      0.0000327      0.0000328
 augmentation part       18.0000002 magnetization       0.0000325      0.0000327      0.0000328

 Free energy of the ion-electron system (eV)
  alpha Z        PSCENC =        28.99437212
  Ewald energy   TEWEN  =       932.31351475
  -Hartree energ DENC   =     -1639.85709586
  -exchange      EXHF   =         0.00000000
  -V(xc)+E(xc)   XCENC  =       -61.13224731
  PAW double counting   =      1192.96551435    -1095.79969004
  entropy T*S    EENTRO =        -0.00841986
  eigenvalues    EBANDS =       -16.95716745
  atomic energy  EATOM  =       731.72065890
  Solvation  Ediel_sol  =         0.00000000
  free energy    TOTEN  =        72.23943960 eV

  energy without entropy =       72.24785946  energy(sigma->0) =       72.24364953

[...]

 eigenvalue-minimisations  : 39832
 total energy-change (2. order) :-0.8490713E+02  (-0.8031309E+02)
 number of electron      18.0000002 magnetization       0.0000325      0.0000327      0.0000328
 augmentation part       18.0000002 magnetization       0.0000325      0.0000327      0.0000328

[...]

 total charge

# of ion       s       p       d       tot
    1        0.385   0.513   4.388   5.287
    2        1.479   2.337   0.059   3.874
    3        1.479   2.337   0.059   3.874
tot          3.343   5.187   4.506  13.036

 magnetization (x)

[...]

 magnetization (y)

[...]

 magnetization (z)

[...]

 Broyden mixing:
  rms(total) = 0.31705E-02    rms(broyden)= 0.31656E-02
  rms(prec ) = 0.31831E-02
  weight for this iteration     100.00

[...]

 eigenvalues of (default mixing * dielectric matrix)
  average eigenvalue GAMMA=   0.7681
  0.7681

[...]

 eigenvalue-minimisations  : 33928
 total energy-change (2. order) :-0.2347976E-05  (-0.1829371E-05)
 number of electron      18.0000002 magnetization       0.0000190      0.0000191      0.0000191
 augmentation part       -1.1155158 magnetization       0.0000186      0.0000192      0.0000192

 Broyden mixing:
  rms(total) = 0.92423E-03    rms(broyden)= 0.92372E-03
  rms(prec ) = 0.92850E-03
  weight for this iteration     100.00

 eigenvalues of (default mixing * dielectric matrix)
  average eigenvalue GAMMA=   0.5346
  0.5346  0.5346

[...]

--------------------------------------- Iteration      1(   8)  ---------------------------------------

 eigenvalue-minimisations  : 28016
 total energy-change (2. order) : 0.1227057E-06  (-0.5940627E-07)
 number of electron      18.0000002 magnetization       0.0000190      0.0000191      0.0000191
 augmentation part       -1.1155158 magnetization       0.0000186      0.0000192      0.0000192

 Free energy of the ion-electron system (eV)
  alpha Z        PSCENC =        28.99437212
  Ewald energy   TEWEN  =       932.31351475
  -Hartree energ DENC   =     -1639.85548949
  -exchange      EXHF   =         0.00000000
  -V(xc)+E(xc)   XCENC  =       -61.13196395
  PAW double counting   =      1193.62430552    -1096.45953102
  entropy T*S    EENTRO =        -0.00000000
  eigenvalues    EBANDS =      -109.20934597
  atomic energy  EATOM  =       731.72065890
  Solvation  Ediel_sol  =         0.00000000
  free energy    TOTEN  =       -20.00347914 eV

  energy without entropy =      -20.00347914  energy(sigma->0) =      -20.00347914

 average (electrostatic) potential at core
  the test charge radii are     1.2296  1.0808
  (the norm of the test charge is              1.0000)
       1 -44.5649       2 -59.2392       3 -59.2393

 E-fermi :  -0.6131     XC(G=0):  -5.2094     alpha+bet : -4.5538

 Fermi energy:        -0.6130639945

 k-point     1 :       0.0000    0.0000    0.0000
  band No.  band energies     occupation
      1     -15.2997      1.00000
      2     -15.2997      1.00000
      3     -14.3623      1.00000
      4     -14.3623      1.00000
      5      -6.4922      1.00000
      6      -6.4922      1.00000
      7      -3.3167      1.00000
      8      -3.3167      1.00000
      9      -3.2837      1.00000
     10      -3.2837      1.00000
     11      -2.9133      1.00000
     12      -2.9133      1.00000
     13      -2.4038      1.00000
     14      -2.4038      1.00000
     15      -2.2095      1.00000
     16      -2.2095      1.00000
     17      -1.3873      1.00000
     18      -1.3873      1.00000
     19       1.5690      0.00000
     20       1.5690      0.00000
     21       1.8263      0.00000
     22       1.8263      0.00000
     23       1.8335      0.00000
     24       1.8335      0.00000
     25       2.0398      0.00000
     26       2.0398      0.00000
     27       3.4083      0.00000
     28       3.4275      0.00000
     29       4.1355      0.00000
     30       4.1410      0.00000
     31       4.7373      0.00000
     32       4.7628      0.00000

[...]

 k-point   441 :      -0.3333   -0.3333    0.0000
  band No.  band energies     occupation
      1     -13.3912      1.00000
      2     -13.3677      1.00000
      3     -13.2157      1.00000
      4     -13.2133      1.00000
      5      -6.1751      1.00000
      6      -6.0548      1.00000
      7      -5.6899      1.00000
      8      -5.5295      1.00000
      9      -5.1385      1.00000
     10      -5.0369      1.00000
     11      -4.5571      1.00000
     12      -4.5249      1.00000
     13      -4.1544      1.00000
     14      -3.9659      1.00000
     15      -3.2482      1.00000
     16      -3.2213      1.00000
     17      -1.2343      1.00000
     18      -1.0494      1.00000
     19       0.2827      0.00000
     20       0.3038      0.00000
     21       1.4148      0.00000
     22       1.4287      0.00000
     23       1.8010      0.00000
     24       1.9454      0.00000
     25       3.1318      0.00000
     26       3.2058      0.00000
     27       5.3466      0.00000
     28       5.4377      0.00000
     29       5.6798      0.00000
     30       5.7008      0.00000
     31       7.7794      0.00000
     32       7.8033      0.00000

 soft charge-density along one line, spin component           1
         0         1         2         3         4         5         6         7         8         9
 total charge-density along one line

[...]

 soft charge-density along one line, spin component           4
         0         1         2         3         4         5         6         7         8         9
 total charge-density along one line

------------------------ aborting loop because EDIFF is reached ----------------------------------------

[...]

  FORCE on cell =-STRESS in cart. coord.  units (eV):
  Direction    XX          YY          ZZ          XY          YZ          ZX
  Alpha Z    28.99437    28.99437    28.99437
  Ewald    1474.19609  1474.19937 -2016.08190     0.00018    -0.00213    -0.00368
  Hartree  1610.00675  1610.00742 -1580.15020     0.00004    -0.00023    -0.00040
  E(xc)     -72.45303   -72.45308   -73.24751     0.00000     0.00007     0.00012
  Local   -3324.16921 -3324.17300  3352.83302    -0.00031     0.00220     0.00379
  n-local    63.05426    63.05450    68.45500     0.00003    -0.00037    -0.00063
  augment     1.16183     1.16231     0.17551    -0.00021     0.00001     0.00001
  Kinetic   218.83102   218.83073   218.68298    -0.00003    -0.00035    -0.00060
  Fock        0.00000     0.00000     0.00000     0.00000     0.00000     0.00000
  Total      -0.37792    -0.37737    -0.33873    -0.00030    -0.00080    -0.00139
  in kB      -4.22874    -4.22260    -3.79029    -0.00340    -0.00897    -0.01556

 VOLUME and BASIS-vectors are now :
  energy-cutoff  :      224.58
  volume of cell :      143.19
      direct lattice vectors                 reciprocal lattice vectors
     3.320000000  0.000000000  0.000000000     0.301204819  0.173900683  0.000000000
    -1.660000000  2.875204341  0.000000000     0.000000000  0.347801367  0.000000000
     0.000000000  0.000000000 15.000000000     0.000000000  0.000000000  0.066666667

  length of vectors
     3.320000000  3.320000000 15.000000000     0.347801367  0.347801367  0.066666667

 FORCES acting on ions
    electron-ion (+dipol)            ewald-force                    non-local-force                 convergence-correction
   -.996E-04 0.667E-03 0.244E-04   0.840E-04 -.764E-03 -.105E-04   -.166E-04 -.222E-03 -.677E-04   0.256E-04 0.298E-04 0.411E-04
   -.979E-03 -.882E-03 0.430E+03   0.106E-02 0.102E-02 -.432E+03   0.180E-03 0.181E-03 0.255E+01   0.327E-04 -.107E-04 -.115E-02
   0.107E-02 0.237E-03 -.430E+03   -.114E-02 -.255E-03 0.432E+03   -.258E-03 -.403E-04 -.255E+01   -.249E-04 -.612E-05 0.201E-02
   -.795E-05 0.228E-04 -.952E-03   -.962E-14 -.634E-15 0.000E+00   -.944E-04 -.805E-04 0.434E-04   0.334E-04 0.130E-04 0.896E-03

 POSITION                                       TOTAL-FORCE (eV/Angst)
      1.63433      0.94359      7.50683         0.000016     -0.000273     -0.000009
      1.63428      2.86035      5.83830         0.000317      0.000323     -0.005082
      1.63439      2.86041      9.17536        -0.000333     -0.000050      0.005090
    total drift:                               -0.000069     -0.000045     -0.000012

  FREE ENERGIE OF THE ION-ELECTRON SYSTEM (eV)
  free  energy   TOTEN  =       -20.00347914 eV

  energy  without entropy=      -20.00347914  energy(sigma->0) =      -20.00347914

 stress matrix after NEB project (eV)
     -0.37792     -0.00030     -0.00139
     -0.00030     -0.37737     -0.00080
     -0.00139     -0.00080     -0.33873
  FORCES: max atom, RMS     0.005102    0.004169
  FORCE total and by dimension    0.007220    0.005090
  Stress total and by dimension    0.632438    0.377919
 writing wavefunctions

 Spin-Orbit-Coupling matrix elements

 Ion:    1  E_soc:     -0.0299563
 l=   1
     0.0000000    -0.0021221    -0.0018878
    -0.0021221     0.0000000    -0.0021221
    -0.0018878    -0.0021221     0.0000000
 l=   2
     0.0000000    -0.0005034     0.0000000    -0.0005034    -0.0028255
    -0.0005034     0.0000000    -0.0017701    -0.0004669    -0.0005034
     0.0000000    -0.0017701     0.0000000    -0.0017701     0.0000000
    -0.0005034    -0.0004669    -0.0017701     0.0000000    -0.0005034
    -0.0028255    -0.0005034     0.0000000    -0.0005034     0.0000000
 l=   3
     0.0000000     0.0000000     0.0000000     0.0000000     0.0000000     0.0000000     0.0000000
     0.0000000     0.0000000     0.0000000     0.0000000     0.0000000     0.0000000     0.0000000
     0.0000000     0.0000000     0.0000000     0.0000000     0.0000000     0.0000000     0.0000000
     0.0000000     0.0000000     0.0000000     0.0000000     0.0000000     0.0000000     0.0000000
     0.0000000     0.0000000     0.0000000     0.0000000     0.0000000     0.0000000     0.0000000
     0.0000000     0.0000000     0.0000000     0.0000000     0.0000000     0.0000000     0.0000000
     0.0000000     0.0000000     0.0000000     0.0000000     0.0000000     0.0000000     0.0000000

[...]

 Ion:    3  E_soc:     -0.0405063
 l=   1
     0.0000000    -0.0066824    -0.0068903
    -0.0066824     0.0000000    -0.0066824
    -0.0068903    -0.0066824     0.0000000
 l=   2
     0.0000000     0.0000006     0.0000000     0.0000006    -0.0000052
     0.0000006     0.0000000    -0.0000011     0.0000068     0.0000006
     0.0000000    -0.0000011     0.0000000    -0.0000011     0.0000000
     0.0000006     0.0000068    -0.0000011     0.0000000     0.0000006
    -0.0000052     0.0000006     0.0000000     0.0000006     0.0000000
 l=   3
     0.0000000     0.0000000     0.0000000     0.0000000     0.0000000     0.0000000     0.0000000
     0.0000000     0.0000000     0.0000000     0.0000000     0.0000000     0.0000000     0.0000000
     0.0000000     0.0000000     0.0000000     0.0000000     0.0000000     0.0000000     0.0000000
     0.0000000     0.0000000     0.0000000     0.0000000     0.0000000     0.0000000     0.0000000
     0.0000000     0.0000000     0.0000000     0.0000000     0.0000000     0.0000000     0.0000000
     0.0000000     0.0000000     0.0000000     0.0000000     0.0000000     0.0000000     0.0000000
     0.0000000     0.0000000     0.0000000     0.0000000     0.0000000     0.0000000     0.0000000

 total charge

[...]

 magnetization (x)

[...]

 magnetization (y)

[...]

 magnetization (z)

# of ion       s       p       d       tot
    1       -0.000  -0.000  -0.000  -0.000
    2       -0.000  -0.000  -0.000  -0.000
    3       -0.000  -0.000  -0.000  -0.000
tot         -0.000  -0.000  -0.000  -0.000