 vasp.6.3.0 20Jan22 (build Oct 03 2022 14:51:58) complex

 executed on             LinuxIFC date 2024.11.01  16:49:45

 INCAR:
   SYSTEM = MoSe2
   PREC = Accurate
   ISPIN = 1
   ISTART = 0
   ICHARG = 1
   NPAR = 8
   ISMEAR = 0
   SIGMA = 0.1
   NELMIN = 4
   NELM = 200
   EDIFF = 1E-6
   MAGMOM = 0 0 1 6*0
   IBRION = -1
   NWRITE = 1
   LORBIT = 11
   LWAVE = .TRUE.
   LCHARG = .TRUE.
   LSORBIT = .TRUE.
   LHFCALC = .TRUE.
   HFSCREEN = 0.2
   ALGO = Damped
   TIME = 0.4

 POTCAR:    PAW_PBE Mo 08Apr2002
 POTCAR:    PAW_PBE Se 06Sep2000
 POTCAR:    PAW_PBE Mo 08Apr2002

 POTCAR:    PAW_PBE Se 06Sep2000

  PAW_PBE Mo 08Apr2002                  :
  PAW_PBE Se 06Sep2000                  :

 POSCAR: Mo  S
  positions in direct lattice
  velocities in cartesian coordinates
 exchange correlation table for  LEXCH =        8
   RHO(1)=    0.500       N(1)  =     2000
   RHO(2)=  100.500       N(2)  =     4000

 VTST: version 4.2, (08/11/21)

 CHAIN: initializing optimizer

 OPT: Using VASP Dynamics algorithm
 CHAIN: Read ICHAIN            0

 POSCAR: Mo  S
  positions in direct lattice
  velocities in cartesian coordinates

 ion  position               nearest neighbor table
   1  0.656  0.328  0.500-   3 2.54   2 2.54   2 2.54   3 2.54   3 2.54   2 2.54
   2  0.990  0.995  0.389-   1 2.54   1 2.54   1 2.54
   3  0.990  0.995  0.612-   1 2.54   1 2.54   1 2.54

  LATTYP: Found a hexagonal cell.
 ALAT       =     3.3200000000
 C/A-ratio  =     4.5180722892

  Lattice vectors:

 A1 = (   3.3200000000,   0.0000000000,   0.0000000000)
 A2 = (  -1.6600000000,   2.8752043406,   0.0000000000)
 A3 = (   0.0000000000,   0.0000000000,  15.0000000000)

Analysis of symmetry for initial positions (statically):
 Subroutine PRICEL returns:
 Original cell was already a primitive cell.

 Routine SETGRP: Setting up the symmetry group for a
 hexagonal supercell.

 Subroutine GETGRP returns: Found  2 space group operations
 (whereof  2 operations were pure point group operations)
 out of a pool of 24 trial point group operations.

The static configuration has the point symmetry C_1h.

Analysis of symmetry for dynamics (positions and initial velocities):
 Subroutine PRICEL returns:
 Original cell was already a primitive cell.

[...]

The dynamic configuration has the point symmetry C_1h.

Analysis of structural, dynamic, and magnetic symmetry:
 Subroutine PRICEL returns:
 Original cell was already a primitive cell.

 Routine SETGRP: Setting up the symmetry group for a
 hexagonal supercell.

 Subroutine GETGRP returns: Found  1 space group operations
 (whereof  1 operations were pure point group operations)
 out of a pool of 24 trial point group operations.

The overall configuration has the point symmetry C_1 .

 Subroutine INISYM returns: Found  1 space group operations
 (whereof  1 operations are pure point group operations),
 and found     1 'primitive' translations

                                     Primitive cell

  volume of cell :     143.1852

  direct lattice vectors                    reciprocal lattice vectors
     3.320000000  0.000000000  0.000000000     0.301204819  0.173900683  0.000000000
    -1.660000000  2.875204341  0.000000000     0.000000000  0.347801367  0.000000000
     0.000000000  0.000000000 15.000000000     0.000000000  0.000000000  0.066666667

  length of vectors
     3.320000000  3.320000000 15.000000000     0.347801367  0.347801367  0.066666667

  position of ions in fractional coordinates (direct lattice)
     0.656360473  0.328183185  0.500455147
     0.989670353  0.994833693  0.389220100
     0.989712767  0.994854919  0.611690486

  ion indices of the primitive-cell ions
   primitive index   ion index
                 1           1
                 2           2
                 3           3

 KPOINTS: Automatic mesh

Automatic generation of k-mesh.
 Grid dimensions read from file:
 generate k-points for:    9    9    1

 Generating k-lattice:

  Cartesian coordinates                     Fractional coordinates (reciprocal lattice)
     0.033467202  0.019322298  0.000000000     0.111111111 -0.000000000  0.000000000
     0.000000000  0.038644596  0.000000000     0.000000000  0.111111111  0.000000000
     0.000000000  0.000000000  0.066666667     0.000000000  0.000000000  1.000000000

  Length of vectors
     0.038644596  0.038644596  0.066666667

  Shift w.r.t. Gamma in fractional coordinates (k-lattice)
     0.000000000  0.000000000  0.000000000

 Subroutine IBZKPT returns following result:

 Found     81 irreducible k-points:

 Following reciprocal coordinates:
            Coordinates               Weight
  0.000000  0.000000  0.000000      1.000000
  0.111111 -0.000000  0.000000      1.000000
 -0.111111  0.000000  0.000000      1.000000
  0.000000  0.111111  0.000000      1.000000
  0.000000 -0.111111  0.000000      1.000000
 -0.111111  0.111111  0.000000      1.000000
  0.111111 -0.111111  0.000000      1.000000
  0.222222  0.000000  0.000000      1.000000
 -0.222222 -0.000000  0.000000      1.000000
  0.000000  0.222222  0.000000      1.000000
  0.000000 -0.222222  0.000000      1.000000
 -0.222222  0.222222  0.000000      1.000000
  0.222222 -0.222222  0.000000      1.000000
  0.333333 -0.000000  0.000000      1.000000
 -0.333333  0.000000  0.000000      1.000000
  0.000000  0.333333  0.000000      1.000000
  0.000000 -0.333333  0.000000      1.000000
 -0.333333  0.333333  0.000000      1.000000
  0.333333 -0.333333  0.000000      1.000000
  0.444444  0.000000  0.000000      1.000000
 -0.444444 -0.000000  0.000000      1.000000
  0.000000  0.444444  0.000000      1.000000
  0.000000 -0.444444  0.000000      1.000000
 -0.444444  0.444444  0.000000      1.000000
  0.444444 -0.444444  0.000000      1.000000
  0.111111  0.111111  0.000000      1.000000
 -0.111111 -0.111111  0.000000      1.000000
 -0.111111  0.222222  0.000000      1.000000
  0.111111 -0.222222  0.000000      1.000000
 -0.222222  0.111111  0.000000      1.000000
  0.222222 -0.111111  0.000000      1.000000
  0.222222  0.111111  0.000000      1.000000
 -0.222222 -0.111111  0.000000      1.000000
 -0.111111  0.333333  0.000000      1.000000
  0.111111 -0.333333  0.000000      1.000000
 -0.333333  0.222222  0.000000      1.000000
  0.333333 -0.222222  0.000000      1.000000
 -0.222222  0.333333  0.000000      1.000000
  0.222222 -0.333333  0.000000      1.000000
  0.111111  0.222222  0.000000      1.000000
 -0.111111 -0.222222  0.000000      1.000000
  0.333333 -0.111111  0.000000      1.000000
 -0.333333  0.111111  0.000000      1.000000
  0.333333  0.111111  0.000000      1.000000
 -0.333333 -0.111111  0.000000      1.000000
 -0.111111  0.444444  0.000000      1.000000
  0.111111 -0.444444  0.000000      1.000000
 -0.444444  0.333333  0.000000      1.000000
  0.444444 -0.333333  0.000000      1.000000
 -0.333333  0.444444  0.000000      1.000000
  0.333333 -0.444444  0.000000      1.000000
  0.111111  0.333333  0.000000      1.000000
 -0.111111 -0.333333  0.000000      1.000000
  0.444444 -0.111111  0.000000      1.000000
 -0.444444  0.111111  0.000000      1.000000
  0.444444  0.111111  0.000000      1.000000
 -0.444444 -0.111111  0.000000      1.000000
 -0.111111 -0.444444  0.000000      1.000000
  0.111111  0.444444  0.000000      1.000000
  0.444444  0.444444  0.000000      1.000000
[...]
  0.444444 -0.222222  0.000000      1.000000
  0.333333  0.222222  0.000000      1.000000
 -0.333333 -0.222222  0.000000      1.000000
 -0.222222 -0.444444  0.000000      1.000000
  0.222222  0.444444  0.000000      1.000000
  0.444444  0.333333  0.000000      1.000000
 -0.444444 -0.333333  0.000000      1.000000
 -0.333333 -0.444444  0.000000      1.000000
  0.333333  0.444444  0.000000      1.000000
  0.222222  0.333333  0.000000      1.000000
 -0.222222 -0.333333  0.000000      1.000000
 -0.444444 -0.222222  0.000000      1.000000
  0.444444  0.222222  0.000000      1.000000
  0.333333  0.333333  0.000000      1.000000
 -0.333333 -0.333333  0.000000      1.000000

 Following cartesian coordinates:
            Coordinates               Weight
  0.000000  0.000000  0.000000      1.000000
  0.033467  0.019322  0.000000      1.000000
 -0.033467 -0.019322  0.000000      1.000000
  0.000000  0.038645  0.000000      1.000000
  0.000000 -0.038645  0.000000      1.000000
 -0.033467  0.019322  0.000000      1.000000
  0.033467 -0.019322  0.000000      1.000000
  0.066934  0.038645  0.000000      1.000000
 -0.066934 -0.038645  0.000000      1.000000
  0.000000  0.077289  0.000000      1.000000
  0.000000 -0.077289  0.000000      1.000000
 -0.066934  0.038645  0.000000      1.000000
  0.066934 -0.038645  0.000000      1.000000
  0.100402  0.057967  0.000000      1.000000
 -0.100402 -0.057967  0.000000      1.000000
  0.000000  0.115934  0.000000      1.000000
  0.000000 -0.115934  0.000000      1.000000
 -0.100402  0.057967  0.000000      1.000000
  0.100402 -0.057967  0.000000      1.000000
  0.133869  0.077289  0.000000      1.000000
 -0.133869 -0.077289  0.000000      1.000000
  0.000000  0.154578  0.000000      1.000000
  0.000000 -0.154578  0.000000      1.000000
 -0.133869  0.077289  0.000000      1.000000
  0.133869 -0.077289  0.000000      1.000000
  0.033467  0.057967  0.000000      1.000000
 -0.033467 -0.057967  0.000000      1.000000
 -0.033467  0.057967  0.000000      1.000000
  0.033467 -0.057967  0.000000      1.000000
 -0.066934 -0.000000  0.000000      1.000000
  0.066934  0.000000  0.000000      1.000000
  0.066934  0.077289  0.000000      1.000000
 -0.066934 -0.077289  0.000000      1.000000
 -0.033467  0.096611  0.000000      1.000000
  0.033467 -0.096611  0.000000      1.000000
 -0.100402  0.019322  0.000000      1.000000
  0.100402 -0.019322  0.000000      1.000000
 -0.066934  0.077289  0.000000      1.000000
  0.066934 -0.077289  0.000000      1.000000
  0.033467  0.096611  0.000000      1.000000
 -0.033467 -0.096611  0.000000      1.000000
  0.100402  0.019322  0.000000      1.000000
 -0.100402 -0.019322  0.000000      1.000000
  0.100402  0.096611  0.000000      1.000000
 -0.100402 -0.096611  0.000000      1.000000
 -0.033467  0.135256  0.000000      1.000000
  0.033467 -0.135256  0.000000      1.000000
 -0.133869  0.038645  0.000000      1.000000
  0.133869 -0.038645  0.000000      1.000000
 -0.100402  0.096611  0.000000      1.000000
  0.100402 -0.096611  0.000000      1.000000
  0.033467  0.135256  0.000000      1.000000
 -0.033467 -0.135256  0.000000      1.000000
  0.133869  0.038645  0.000000      1.000000
 -0.133869 -0.038645  0.000000      1.000000
  0.133869  0.115934  0.000000      1.000000
 -0.133869 -0.115934  0.000000      1.000000
 -0.033467 -0.173901  0.000000      1.000000
  0.033467  0.173901  0.000000      1.000000
  0.133869  0.231868  0.000000      1.000000
[...]
  0.133869  0.000000  0.000000      1.000000
  0.100402  0.135256  0.000000      1.000000
 -0.100402 -0.135256  0.000000      1.000000
 -0.066934 -0.193223  0.000000      1.000000
  0.066934  0.193223  0.000000      1.000000
  0.133869  0.193223  0.000000      1.000000
 -0.133869 -0.193223  0.000000      1.000000
 -0.100402 -0.212545  0.000000      1.000000
  0.100402  0.212545  0.000000      1.000000
[...]

 k-point   1 :   0.0000 0.0000 0.0000  plane waves:    2150
 k-point   2 :   0.1111-0.0000 0.0000  plane waves:    2122
 k-point   3 :  -0.1111 0.0000 0.0000  plane waves:    2122
 k-point   4 :   0.0000 0.1111 0.0000  plane waves:    2122
 k-point   5 :   0.0000-0.1111 0.0000  plane waves:    2122
 k-point   6 :  -0.1111 0.1111 0.0000  plane waves:    2122
 k-point   7 :   0.1111-0.1111 0.0000  plane waves:    2122
 k-point   8 :   0.2222 0.0000 0.0000  plane waves:    2166
 k-point   9 :  -0.2222-0.0000 0.0000  plane waves:    2166
 k-point  10 :   0.0000 0.2222 0.0000  plane waves:    2166
 k-point  11 :   0.0000-0.2222 0.0000  plane waves:    2166
 k-point  12 :  -0.2222 0.2222 0.0000  plane waves:    2166
 k-point  13 :   0.2222-0.2222 0.0000  plane waves:    2166
 k-point  14 :   0.3333-0.0000 0.0000  plane waves:    2170
 k-point  15 :  -0.3333 0.0000 0.0000  plane waves:    2170
 k-point  16 :   0.0000 0.3333 0.0000  plane waves:    2170
 k-point  17 :   0.0000-0.3333 0.0000  plane waves:    2170
 k-point  18 :  -0.3333 0.3333 0.0000  plane waves:    2170
 k-point  19 :   0.3333-0.3333 0.0000  plane waves:    2170
 k-point  20 :   0.4444 0.0000 0.0000  plane waves:    2198
 k-point  21 :  -0.4444-0.0000 0.0000  plane waves:    2198
 k-point  22 :   0.0000 0.4444 0.0000  plane waves:    2198
 k-point  23 :   0.0000-0.4444 0.0000  plane waves:    2198
 k-point  24 :  -0.4444 0.4444 0.0000  plane waves:    2198
 k-point  25 :   0.4444-0.4444 0.0000  plane waves:    2198
 k-point  26 :   0.1111 0.1111 0.0000  plane waves:    2164
 k-point  27 :  -0.1111-0.1111 0.0000  plane waves:    2164
 k-point  28 :  -0.1111 0.2222 0.0000  plane waves:    2164
 k-point  29 :   0.1111-0.2222 0.0000  plane waves:    2164
 k-point  30 :  -0.2222 0.1111 0.0000  plane waves:    2164
 k-point  31 :   0.2222-0.1111 0.0000  plane waves:    2164
 k-point  32 :   0.2222 0.1111 0.0000  plane waves:    2194
 k-point  33 :  -0.2222-0.1111 0.0000  plane waves:    2194
 k-point  34 :  -0.1111 0.3333 0.0000  plane waves:    2194
 k-point  35 :   0.1111-0.3333 0.0000  plane waves:    2194
 k-point  36 :  -0.3333 0.2222 0.0000  plane waves:    2194
 k-point  37 :   0.3333-0.2222 0.0000  plane waves:    2194
 k-point  38 :  -0.2222 0.3333 0.0000  plane waves:    2194
 k-point  39 :   0.2222-0.3333 0.0000  plane waves:    2194
 k-point  40 :   0.1111 0.2222 0.0000  plane waves:    2194
 k-point  41 :  -0.1111-0.2222 0.0000  plane waves:    2194
 k-point  42 :   0.3333-0.1111 0.0000  plane waves:    2194
 k-point  43 :  -0.3333 0.1111 0.0000  plane waves:    2194
 k-point  44 :   0.3333 0.1111 0.0000  plane waves:    2206
 k-point  45 :  -0.3333-0.1111 0.0000  plane waves:    2206
 k-point  46 :  -0.1111 0.4444 0.0000  plane waves:    2206
 k-point  47 :   0.1111-0.4444 0.0000  plane waves:    2206
 k-point  48 :  -0.4444 0.3333 0.0000  plane waves:    2206
 k-point  49 :   0.4444-0.3333 0.0000  plane waves:    2206
 k-point  50 :  -0.3333 0.4444 0.0000  plane waves:    2206
 k-point  51 :   0.3333-0.4444 0.0000  plane waves:    2206
 k-point  52 :   0.1111 0.3333 0.0000  plane waves:    2206
 k-point  53 :  -0.1111-0.3333 0.0000  plane waves:    2206
 k-point  54 :   0.4444-0.1111 0.0000  plane waves:    2206
 k-point  55 :  -0.4444 0.1111 0.0000  plane waves:    2206
 k-point  56 :   0.4444 0.1111 0.0000  plane waves:    2208
 k-point  57 :  -0.4444-0.1111 0.0000  plane waves:    2208
 k-point  58 :  -0.1111-0.4444 0.0000  plane waves:    2208
 k-point  59 :   0.1111 0.4444 0.0000  plane waves:    2208
 k-point  60 :   0.4444 0.4444 0.0000  plane waves:    2208
[...]
 k-point  67 :   0.4444-0.2222 0.0000  plane waves:    2192
 k-point  68 :   0.3333 0.2222 0.0000  plane waves:    2222
 k-point  69 :  -0.3333-0.2222 0.0000  plane waves:    2222
 k-point  70 :  -0.2222-0.4444 0.0000  plane waves:    2222
 k-point  71 :   0.2222 0.4444 0.0000  plane waves:    2222
 k-point  72 :   0.4444 0.3333 0.0000  plane waves:    2222
 k-point  73 :  -0.4444-0.3333 0.0000  plane waves:    2222
 k-point  74 :  -0.3333-0.4444 0.0000  plane waves:    2222
 k-point  75 :   0.3333 0.4444 0.0000  plane waves:    2222
 k-point  76 :   0.2222 0.3333 0.0000  plane waves:    2222
 k-point  77 :  -0.2222-0.3333 0.0000  plane waves:    2222
 k-point  78 :  -0.4444-0.2222 0.0000  plane waves:    2222
 k-point  79 :   0.4444 0.2222 0.0000  plane waves:    2222
 k-point  80 :   0.3333 0.3333 0.0000  plane waves:    2184
 k-point  81 :  -0.3333-0.3333 0.0000  plane waves:    2184

 maximum and minimum number of plane-waves per node :       388      328

 maximum number of plane-waves:      2222
 maximum index in each direction:
   IXMAX=    4   IYMAX=    4   IZMAX=   18
   IXMIN=   -4   IYMIN=   -4   IZMIN=  -18

 parallel 3D FFT for wavefunctions:
    minimum data exchange during FFTs selected (reduces bandwidth)
 parallel 3D FFT for charge:
    minimum data exchange during FFTs selected (reduces bandwidth)

 FFT grid for exact exchange (Hartree Fock)
  NGX = 14; NGY = 14; NGZ = 60

 Radii for the augmentation spheres in the non-local exchange
 for species   1 augmentation radius   1.537 (default was   1.230)
       energy cutoff for augmentation    898.3
 for species   2 augmentation radius   1.351 (default was   1.081)
       energy cutoff for augmentation    898.3

 real space projection operators:
  max/ min on nodes  :        131.45         71.68

 Maximum index for augmentation-charges in exchange          277
  SETUP_FOCK is finished

 Broyden mixing: mesh for mixing (old mesh)
   NGX =  9   NGY =  9   NGZ = 37
  (NGX  = 32   NGY  = 32   NGZ  =160)
  gives a total of   2997 points

 initial charge density was supplied:
 number of electron      18.0000002 magnetization       0.0000099      0.0000100      0.0000100
 keeping initial charge density in first step

 Maximum index for augmentation-charges          379 (set IRDMAX)

 First call to EWALD:  gamma=   0.339
 Maximum number of real-space cells 5x 5x 1
 Maximum number of reciprocal cells 2x 2x 7

--------------------------------------- Iteration      1(   1)  ---------------------------------------

 eigenvalue-minimisations  :  7744
 total energy-change (2. order) :-0.1823663E+04  (-0.4507809E+03)
 number of electron      18.0000002 magnetization       0.0000099      0.0000100      0.0000100
 augmentation part       18.0000002 magnetization       0.0000099      0.0000100      0.0000100

 Free energy of the ion-electron system (eV)
  alpha Z        PSCENC =        28.99437212
  Ewald energy   TEWEN  =       932.31351475
  -Hartree energ DENC   =     -1639.85597748
  -exchange      EXHF   =         0.00000000
  -V(xc)+E(xc)   XCENC  =       -61.13212529
  PAW double counting   =      1193.20455278    -3002.17525327
  entropy T*S    EENTRO =        -0.01097430
  eigenvalues    EBANDS =         0.20561878
  atomic energy  EATOM  =       724.79368622
  free energy    TOTEN  =     -1823.66258568 eV

  energy without entropy =    -1823.65161138  energy(sigma->0) =    -1823.65709853
  exchange ACFDT corr.  =         0.00000000  see jH, gK, PRB 81, 115126

[...]

 eigenvalue-minimisations  :  8920
 total energy-change (2. order) : 0.1931947E+04  (-0.1309785E+01)
 number of electron      18.0000002 magnetization      -0.0000534     -0.0000509      0.0002984
 augmentation part       -0.9578530 magnetization       0.0004809      0.0007695     -0.0007498

[...]

--------------------------------------- Iteration      1(  21)  ---------------------------------------

 eigenvalue-minimisations  :     0
 total energy-change (2. order) :-0.6093974E-06  (-0.4165336E-06)
 number of electron      18.0000002 magnetization       0.0000002      0.0000002     -0.0000005
 augmentation part       -1.0996102 magnetization       0.0000226      0.0001085     -0.0000951

 Free energy of the ion-electron system (eV)
  alpha Z        PSCENC =        28.99437212
  Ewald energy   TEWEN  =       932.31351475
  -Hartree energ DENC   =     -1638.47783709
  -exchange      EXHF   =        27.41258518
  -V(xc)+E(xc)   XCENC  =       -49.82916669
  PAW double counting   =      1364.01396535    -1285.93313903
  entropy T*S    EENTRO =        -0.00000000
  eigenvalues    EBANDS =      -127.25610950
  atomic energy  EATOM  =       724.79368622
  free energy    TOTEN  =       -23.96811699 eV

  energy without entropy =      -23.96811699  energy(sigma->0) =      -23.96811699
  exchange ACFDT corr.  =        -0.00000000  see jH, gK, PRB 81, 115126

  average scaling for gradient   0.9281

 average (electrostatic) potential at core
  the test charge radii are     1.2296  1.0808
  (the norm of the test charge is              1.0000)
       1 -40.3913       2 -55.6511       3 -55.6511

 E-fermi :  -0.9998     XC(G=0):  -4.3642     alpha+bet : -4.5538

 Fermi energy:        -0.9997914969

 k-point     1 :       0.0000    0.0000    0.0000
  band No.  band energies     occupation
      1     -17.2047      1.00000
      2     -17.2045      1.00000
      3     -16.1479      1.00000
      4     -16.1477      1.00000
      5      -7.6043      1.00000
      6      -7.6043      1.00000
      7      -4.0804      1.00000
      8      -4.0802      1.00000
      9      -4.0736      1.00000
     10      -4.0735      1.00000
     11      -3.6123      1.00000
     12      -3.6122      1.00000
     13      -2.9927      1.00000
     14      -2.9926      1.00000
     15      -2.7463      1.00000
     16      -2.7462      1.00000
     17      -1.8583      1.00000
     18      -1.8582      1.00000
     19       1.8045      0.00000
     20       1.8046      0.00000
     21       2.0950      0.00000
     22       2.0955      0.00000
     23       2.0965      0.00000
     24       2.0971      0.00000
     25       2.3074      0.00000
     26       2.3075      0.00000
     27       3.5811      0.00000
     28       3.5814      0.00000
     29       4.3078      0.00000
     30       4.3080      0.00000
     31       5.1290      0.00000
     32       5.5220      0.00000

[...]

 k-point    81 :      -0.3333   -0.3333    0.0000
  band No.  band energies     occupation
      1     -15.0600      1.00000
      2     -15.0372      1.00000
      3     -14.8665      1.00000
      4     -14.8632      1.00000
      5      -7.2062      1.00000
      6      -7.0774      1.00000
      7      -6.7279      1.00000
      8      -6.5531      1.00000
      9      -6.0432      1.00000
     10      -5.9157      1.00000
     11      -5.4622      1.00000
     12      -5.4413      1.00000
     13      -4.9864      1.00000
     14      -4.7751      1.00000
     15      -4.0187      1.00000
     16      -3.9836      1.00000
     17      -1.6821      1.00000
     18      -1.4074      1.00000
     19       0.3023      0.00000
     20       0.3487      0.00000
     21       1.6875      0.00000
     22       1.6985      0.00000
     23       2.0608      0.00000
     24       2.2714      0.00000
     25       3.6060      0.00000
     26       3.6978      0.00000
     27       5.7211      0.00000
     28       5.8022      0.00000
     29       6.1159      0.00000
     30       6.1361      0.00000
     31       8.2175      0.00000
     32       8.2700      0.00000

 soft charge-density along one line, spin component           1
         0         1         2         3         4         5         6         7         8         9
 total charge-density along one line

[...]

 soft charge-density along one line, spin component           4
         0         1         2         3         4         5         6         7         8         9
 total charge-density along one line

------------------------ aborting loop because EDIFF is reached ----------------------------------------

 total charge

# of ion       s       p       d       tot
    1        0.411   0.532   4.335   5.278
    2        1.490   2.364   0.060   3.914
    3        1.490   2.364   0.060   3.914
tot          3.390   5.261   4.455  13.106

 magnetization (x)

[...]

 magnetization (y)

[...]

 magnetization (z)

[...]

 VOLUME and BASIS-vectors are now :
  energy-cutoff  :      224.58
  volume of cell :      143.19
      direct lattice vectors                 reciprocal lattice vectors
     3.320000000  0.000000000  0.000000000     0.301204819  0.173900683  0.000000000
    -1.660000000  2.875204341  0.000000000     0.000000000  0.347801367  0.000000000
     0.000000000  0.000000000 15.000000000     0.000000000  0.000000000  0.066666667

  length of vectors
     3.320000000  3.320000000 15.000000000     0.347801367  0.347801367  0.066666667

 FORCES acting on ions:
    Electron-Ion                     Ewald-Force                    Non-Local-Force
   -.742E-04 0.641E-03 0.298E-04   0.840E-04 -.764E-03 -.105E-04   -.220E-04 -.127E-03 -.486E-04
   -.902E-03 -.883E-03 0.430E+03   0.106E-02 0.102E-02 -.432E+03   0.176E-03 0.165E-03 0.263E+01
   0.100E-02 0.215E-03 -.430E+03   -.114E-02 -.255E-03 0.432E+03   -.205E-03 -.503E-04 -.263E+01
   0.190E-04 -.149E-04 -.346E-04   -.962E-14 -.634E-15 0.000E+00   -.509E-04 -.122E-04 -.266E-04

 POSITION                                       TOTAL-FORCE (eV/Angst)
      1.63433      0.94359      7.50683         0.000010     -0.000221     -0.000001
      1.63428      2.86035      5.83830         0.000343      0.000310      0.546016
      1.63439      2.86041      9.17536        -0.000353     -0.000089     -0.546015
    total drift:                               -0.000053     -0.000038     -0.000080

  FREE ENERGIE OF THE ION-ELECTRON SYSTEM (eV)
  free  energy   TOTEN  =       -23.96811699 eV

  energy  without entropy=      -23.96811699  energy(sigma->0) =      -23.96811699

 stress matrix after NEB project (eV)
      0.00000      0.00000      0.00000
      0.00000      0.00000      0.00000
      0.00000      0.00000      0.00000
  FORCES: max atom, RMS     0.546017    0.445820
  FORCE total and by dimension    0.772183    0.546016
  Stress total and by dimension    0.000000    0.000000
 writing wavefunctions

 Spin-Orbit-Coupling matrix elements

 Ion:    1  E_soc:     -0.0327701
 l=   1
     0.0000000    -0.0021229    -0.0018874
    -0.0021229     0.0000000    -0.0021229
    -0.0018874    -0.0021229     0.0000000
 l=   2
     0.0000000    -0.0005574     0.0000000    -0.0005574    -0.0034402
    -0.0005574     0.0000000    -0.0020430    -0.0004970    -0.0005574
     0.0000000    -0.0020430     0.0000000    -0.0020424     0.0000000
    -0.0005574    -0.0004970    -0.0020424     0.0000000    -0.0005570
    -0.0034402    -0.0005574     0.0000000    -0.0005570     0.0000000
 l=   3
     0.0000000     0.0000000     0.0000000     0.0000000     0.0000000     0.0000000     0.0000000
     0.0000000     0.0000000     0.0000000     0.0000000     0.0000000     0.0000000     0.0000000
     0.0000000     0.0000000     0.0000000     0.0000000     0.0000000     0.0000000     0.0000000
     0.0000000     0.0000000     0.0000000     0.0000000     0.0000000     0.0000000     0.0000000
     0.0000000     0.0000000     0.0000000     0.0000000     0.0000000     0.0000000     0.0000000
     0.0000000     0.0000000     0.0000000     0.0000000     0.0000000     0.0000000     0.0000000
     0.0000000     0.0000000     0.0000000     0.0000000     0.0000000     0.0000000     0.0000000

[...]

 Ion:    3  E_soc:     -0.0399183
 l=   1
     0.0000000    -0.0065345    -0.0068943
    -0.0065345     0.0000000    -0.0065343
    -0.0068943    -0.0065343     0.0000000
 l=   2
     0.0000000     0.0000007     0.0000000     0.0000007    -0.0000052
     0.0000007     0.0000000    -0.0000005     0.0000076     0.0000007
     0.0000000    -0.0000005     0.0000000    -0.0000005     0.0000000
     0.0000007     0.0000076    -0.0000005     0.0000000     0.0000007
    -0.0000052     0.0000007     0.0000000     0.0000007     0.0000000
 l=   3
     0.0000000     0.0000000     0.0000000     0.0000000     0.0000000     0.0000000     0.0000000
     0.0000000     0.0000000     0.0000000     0.0000000     0.0000000     0.0000000     0.0000000
     0.0000000     0.0000000     0.0000000     0.0000000     0.0000000     0.0000000     0.0000000
     0.0000000     0.0000000     0.0000000     0.0000000     0.0000000     0.0000000     0.0000000
     0.0000000     0.0000000     0.0000000     0.0000000     0.0000000     0.0000000     0.0000000
     0.0000000     0.0000000     0.0000000     0.0000000     0.0000000     0.0000000     0.0000000
     0.0000000     0.0000000     0.0000000     0.0000000     0.0000000     0.0000000     0.0000000

 total charge

[...]

 magnetization (x)

[...]

 magnetization (y)

[...]

 magnetization (z)

# of ion       s       p       d       tot
    1       -0.000  -0.000  -0.000  -0.000
    2        0.000   0.000  -0.000   0.000
    3        0.000   0.000  -0.000   0.000
tot          0.000   0.000  -0.000  -0.000